  Job Started  at 00:07.49 26th August     2021

  Number of CPUs =     1

  Total number of configurations input =      1

*  Input for Configuration =   1                                               *

  Formula = Ga2Cl6

  Number of irreducible atoms/shells =      14

  Total number atoms/shells =      14

  Dimensionality = 3               :  Bulk

  Cartesian lattice vectors (Angstroms) :

        7.286000    0.000000    0.000000
        3.439979    6.422799    0.000000
        3.788756    2.268736    5.995088

  Cell parameters (Angstroms/Degrees):

  a =       7.2860    alpha =  59.4140
  b =       7.2860    beta  =  59.4140
  c =       7.4460    gamma =  61.8270

  Initial cell volume =         280.549192 Angs**3

  Temperature of configuration =   0.00     K

  Pressure of configuration =         0.000 GPa

  Fractional coordinates of asymmetric unit :

   No.  Atomic       x           y          z         Charge      Occupancy
        Label      (Frac)      (Frac)     (Frac)        (e)         (Frac)
      1 Ga    c    0.344749    0.344749    0.084305     3.00000    1.000000
      2 Ga    c    0.655251 *  0.655251 *  0.915695 *   3.00000    1.000000
      3 Cl    c    0.278747 *  0.721253 *  0.000000 *   1.48500    1.000000
      4 Cl    c    0.721253 *  0.278747 *  0.000000 *   1.48500    1.000000
      5 Cl    c    0.689436 *  0.689436 *  0.164912 *   1.48500    1.000000
      6 Cl    c    0.310564 *  0.310564 *  0.835088 *   1.48500    1.000000
      7 Cl    c    0.813092 *  0.813092 *  0.569365 *   1.48500    1.000000
      8 Cl    c    0.186908 *  0.186908 *  0.430635 *   1.48500    1.000000
      9 Cl    s    0.278747 *  0.721253 *  0.000000 *  -2.48500    1.000000
     10 Cl    s    0.721253 *  0.278747 *  0.000000 *  -2.48500    1.000000
     11 Cl    s    0.689436 *  0.689436 *  0.164912 *  -2.48500    1.000000
     12 Cl    s    0.310564 *  0.310564 *  0.835088 *  -2.48500    1.000000
     13 Cl    s    0.813092 *  0.813092 *  0.569365 *  -2.48500    1.000000
     14 Cl    s    0.186908 *  0.186908 *  0.430635 *  -2.48500    1.000000

*  General input information                                                   *

  Species output for all configurations :

  Species    Type    Atomic    Atomic    Charge       Radii (Angs)     Library
                     Number     Mass       (e)     Cova   Ionic  VDW   Symbol
    Ga       Core       31      69.72   3.000000   1.220  0.000  1.820
    Cl       Core       17      35.45   1.485000   0.990  0.000  1.650
    Cl       Shell      17       0.00  -2.485000   0.990  0.000  1.650

  Lattice summation method               =    Ewald          (3-D)
                                         =    Parry          (2-D)
                                         =    Saunders et al (1-D)
  Accuracy factor for lattice sums       =   12.000

  Analytic derivatives to be used

  Time limit = Infinity

  Maximum range for interatomic potentials =    100000.000000 Angstroms

  General interatomic potentials :

Atom  Types   Potential      Parameter       Value         Units   Cutoffs(Ang)
  1     2                                                            Min /  Max
Cl   c Cl   s Spring (c-s)  Spring k 2       29.380000    eV*Ang^-2 0.000  0.800
                            Spring k 4       0.0000000    eV*Ang^-4
Ga   c Cl   s Buckingham    Buckingham A     924.20000    eV        0.000 12.000
                            Buckingham rho  0.34280000    Ang
                            Buckingham C     0.0000000    eV*Ang^6
Cl   s Cl   s Buckingham    Buckingham A     1227.2000    eV        0.000 12.000
                            Buckingham rho  0.32100000    Ang
                            Buckingham C     14.530000    eV*Ang^6

*  Output for configuration   1                                                *

  Components of energy :

  Interatomic potentials     =          11.57294692 eV
  Monopole - monopole (real) =         -36.64258428 eV
  Monopole - monopole (recip)=         -62.97523081 eV
  Monopole - monopole (total)=         -99.61781509 eV
  Total lattice energy       =         -88.04486817 eV
  Total lattice energy       =           -8494.9839 kJ/(mole unit cells)

  Number of variables =       45

  Maximum number of calculations  =          1000
  Maximum Hessian update interval =            10
  Maximum step size               =   1.000000000
  Maximum parameter tolerance     =   0.000010000
  Maximum function  tolerance     =   0.000010000
  Maximum gradient  tolerance     =   0.001000000
  Maximum gradient  component     =   0.010000000

  Symmetry not applied to optimisation

  Cell parameters to be optimised using strains

  Newton-Raphson optimiser to be used

  BFGS hessian update to be used

  Lower half triangular hessian to be used

  Start of bulk optimisation :

  ** Hessian calculated **
  ** Hessian calculated **
  ** Hessian calculated **
  ** Hessian calculated **
  ** Hessian calculated **
  ** Hessian calculated **
  ** Hessian calculated **
  ** Hessian calculated **
  ** Hessian calculated **
  ** Hessian calculated **
  ** Hessian calculated **
  ** Hessian calculated **
  ** Hessian calculated **

  **** Optimisation achieved ****

  Final energy =    -103.22937106 eV
  Final Gnorm  =       0.00061091

  Components of energy :

  Interatomic potentials     =          38.27257558 eV
  Monopole - monopole (real) =          53.11246600 eV
  Monopole - monopole (recip)=        -194.61441264 eV
  Monopole - monopole (total)=        -141.50194664 eV
  Total lattice energy       =        -103.22937106 eV
  Total lattice energy       =           -9960.0563 kJ/(mole unit cells)

  Final fractional coordinates of atoms :

   No.  Atomic        x           y          z          Radius
        Label       (Frac)      (Frac)     (Frac)       (Angs)
     1  Ga    c     0.344749    0.344749    0.084305    0.000000
     2  Ga    c     0.727725    0.613639    0.888480    0.000000
     3  Cl    c     0.311264    0.717832    0.982123    0.000000
     4  Cl    c     0.761280    0.240602    0.990424    0.000000
     5  Cl    c     0.771256    0.655241    0.141524    0.000000
     6  Cl    c     0.300987    0.302868    0.831593    0.000000
     7  Cl    c     0.867350    0.788276    0.527393    0.000000
     8  Cl    c     0.205245    0.170230    0.445455    0.000000
     9  Cl    s     0.348986    0.670350    0.985168    0.000000
    10  Cl    s     0.723551    0.288072    0.987424    0.000000
    11  Cl    s     0.769191    0.648072    0.100179    0.000000
    12  Cl    s     0.303095    0.310096    0.872881    0.000000
    13  Cl    s     0.844212    0.759336    0.586132    0.000000
    14  Cl    s     0.228360    0.199148    0.386715    0.000000

  Final Cartesian lattice vectors (Angstroms) :

        6.738095   -0.007614   -0.063558
        3.180663    6.365006    0.076805
        3.473594    2.283909    5.769543

  Final cell parameters and derivatives :

       a            6.738399 Angstrom     dE/de1(xx)    -0.000402 eV/strain
       b            7.115885 Angstrom     dE/de2(yy)    -0.000218 eV/strain
       c            7.111239 Angstrom     dE/de3(zz)     0.000006 eV/strain
       alpha       59.044625 Degrees      dE/de4(yz)     0.000257 eV/strain
       beta        61.286659 Degrees      dE/de5(xz)     0.001573 eV/strain
       gamma       63.522402 Degrees      dE/de6(xy)     0.000011 eV/strain

  Primitive cell volume =           247.343535 Angs**3

  Density of cell =      2.364127 g/cm**3

  Non-primitive cell volume =           247.343535 Angs**3

  Final internal derivatives :

   No.  Atomic          a             b             c           Radius
        Label          (eV)          (eV)          (eV)        (eV/Angs)
      1 Ga    c       0.000000      0.000000      0.000000      0.000000
      2 Ga    c      -0.005897     -0.000492     -0.000943      0.000000
      3 Cl    c       0.007077     -0.001504     -0.001837      0.000000
      4 Cl    c      -0.002885      0.002154     -0.002275      0.000000
      5 Cl    c      -0.003155     -0.004695      0.005431      0.000000
      6 Cl    c      -0.001244     -0.000409     -0.002448      0.000000
      7 Cl    c       0.001812     -0.000149     -0.001503      0.000000
      8 Cl    c      -0.001673     -0.000811      0.006508      0.000000
      9 Cl    s       0.004771      0.005793      0.002774      0.000000
     10 Cl    s       0.004720      0.000344      0.005095      0.000000
     11 Cl    s       0.006685      0.002852      0.009194      0.000000
     12 Cl    s      -0.000532      0.005200      0.003605      0.000000
     13 Cl    s      -0.007895     -0.007104     -0.007220      0.000000
     14 Cl    s       0.002596      0.002286      0.007466      0.000000
  Maximum abs         0.007895      0.007104      0.009194      0.000000

  Comparison of initial and final structures :

  Parameter   Initial value   Final value   Difference    Units      Percent
    Volume       280.549192    247.343535   -33.205658    Angs**3    -11.84
    a              7.286000      6.738399    -0.547601    Angstroms   -7.52
    b              7.286000      7.115885    -0.170115    Angstroms   -2.33
    c              7.446000      7.111239    -0.334761    Angstroms   -4.50
    alpha         59.414000     59.044625    -0.369375    Degrees     -0.62
    beta          59.414000     61.286659     1.872659    Degrees      3.15
    gamma         61.827000     63.522402     1.695402    Degrees      2.74
      1 x          0.344749      0.344749     0.000000    Fractional   0.00
      1 y          0.344749      0.344749     0.000000    Fractional   0.00
      1 z          0.084305      0.084305     0.000000    Fractional   0.00
      2 x          0.655251      0.727725     0.072474    Fractional  11.06
      2 y          0.655251      0.613639     0.041612    Fractional   6.35
      2 z          0.915695      0.888480     0.027215    Fractional   2.97
      3 x          0.278747      0.311264     0.032517    Fractional  11.67
      3 y          0.721253      0.717832     0.003421    Fractional   0.47
      3 z          0.000000      0.982123     0.982123    Fractional   0.00
      4 x          0.721253      0.761280     0.040027    Fractional   5.55
      4 y          0.278747      0.240602     0.038145    Fractional  13.68
      4 z          0.000000      0.990424     0.990424    Fractional   0.00
      5 x          0.689436      0.771256     0.081820    Fractional  11.87
      5 y          0.689436      0.655241     0.034195    Fractional   4.96
      5 z          0.164912      0.141524     0.023388    Fractional  14.18
      6 x          0.310564      0.300987     0.009577    Fractional   3.08
      6 y          0.310564      0.302868     0.007696    Fractional   2.48
      6 z          0.835088      0.831593     0.003495    Fractional   0.42
      7 x          0.813092      0.867350     0.054258    Fractional   6.67
      7 y          0.813092      0.788276     0.024816    Fractional   3.05
      7 z          0.569365      0.527393     0.041972    Fractional   7.37
      8 x          0.186908      0.205245     0.018337    Fractional   9.81
[...]
    728 z          9.155924      9.154359    -0.001565    Cartesian   -0.02
    729 x          7.281950      7.265956    -0.015995    Cartesian   -0.22
    729 y          0.351871      0.338934    -0.012937    Cartesian   -3.68
    729 z         13.694231     13.733260     0.039029    Cartesian    0.29
    730 x          0.770227      0.781819     0.011592    Cartesian    1.50
    730 y         13.012069     13.000555    -0.011514    Cartesian   -0.09
    730 z          6.552340      6.530122    -0.022218    Cartesian   -0.34
    731 x          6.333795      6.343242     0.009447    Cartesian    0.15
    731 y         -6.362844     -6.361112     0.001732    Cartesian   -0.03
    731 z         11.289058     11.294167     0.005109    Cartesian    0.05
    732 x         16.584719     16.544795    -0.039924    Cartesian   -0.24
    732 y         10.238904     10.159932    -0.078972    Cartesian   -0.77
    732 z         -2.369915     -2.359769     0.010147    Cartesian   -0.43
    733 x          9.876752      9.876009    -0.000743    Cartesian   -0.01
    733 y         14.879072     14.872489    -0.006583    Cartesian   -0.04
    733 z          2.385561      2.387373     0.001812    Cartesian    0.08
    734 x          1.439928      1.446195     0.006267    Cartesian    0.44
    734 y         -3.806655     -3.801518     0.005138    Cartesian   -0.13
    734 z         12.027910     12.013869    -0.014040    Cartesian   -0.12
    735 x          4.202407      4.201240    -0.001167    Cartesian   -0.03
    735 y         -6.592514     -6.587955     0.004559    Cartesian   -0.07
    735 z        -11.100574    -11.098412     0.002162    Cartesian   -0.02
    736 x         -1.263329     -1.262422     0.000907    Cartesian   -0.07
    736 y         12.134847     12.124184    -0.010663    Cartesian   -0.09
    736 z         -6.281241     -6.268703     0.012537    Cartesian   -0.20
    737 x         11.756098     11.758556     0.002457    Cartesian    0.02
    737 y         -3.939557     -3.938346     0.001211    Cartesian   -0.03
    737 z         11.265649     11.265373    -0.000276    Cartesian   -0.00
    738 x         14.121165     14.113724    -0.007441    Cartesian   -0.05
    738 y         -0.235122     -0.232916     0.002206    Cartesian   -0.94
    738 z        -11.087327    -11.083432     0.003895    Cartesian   -0.04
    739 x         -5.800190     -5.794870     0.005321    Cartesian   -0.09
    739 y         -4.293376     -4.292701     0.000675    Cartesian   -0.02
    739 z         -5.203915     -5.205593    -0.001678    Cartesian    0.03
    740 x         12.296700     12.289921    -0.006779    Cartesian   -0.06
    740 y          3.463088      3.454628    -0.008460    Cartesian   -0.24
    740 z        -12.318263    -12.307215     0.011048    Cartesian   -0.09
    741 x          9.910991      9.909301    -0.001690    Cartesian   -0.02
    741 y         -6.488680     -6.478980     0.009700    Cartesian   -0.15
    741 z         10.593052     10.587532    -0.005520    Cartesian   -0.05
    742 x         -0.781071     -0.779164     0.001907    Cartesian   -0.24
    742 y          6.382397      6.383331     0.000934    Cartesian    0.01
    742 z         11.569785     11.565227    -0.004558    Cartesian   -0.04
    743 x          3.741798      3.747081     0.005283    Cartesian    0.14
    743 y         14.801643     14.790849    -0.010794    Cartesian   -0.07
    743 z         -4.973499     -4.973342     0.000156    Cartesian   -0.00
    744 x          5.162071      5.162101     0.000030    Cartesian    0.00
    744 y          9.961545      9.960985    -0.000559    Cartesian   -0.01
    744 z        -11.481893    -11.478516     0.003377    Cartesian   -0.03
    745 x         -1.179490     -1.185133    -0.005642    Cartesian    0.48
    745 y          3.478317      3.468066    -0.010252    Cartesian   -0.29
    745 z        -12.191147    -12.188106     0.003041    Cartesian   -0.02
    746 x          8.073413      8.074083     0.000670    Cartesian    0.01
    746 y        -10.798899    -10.796091     0.002808    Cartesian   -0.03
    746 z         -6.106539     -6.102727     0.003812    Cartesian   -0.06
    747 x         12.695120     12.696291     0.001171    Cartesian    0.01
    747 y          6.367169      6.365554    -0.001614    Cartesian   -0.03
    747 z         11.442669     11.444947     0.002278    Cartesian    0.02
    748 x         -4.234900     -4.235155    -0.000255    Cartesian    0.01
    748 y         10.345274     10.344315    -0.000958    Cartesian   -0.01
    748 z          5.244599      5.243597    -0.001001    Cartesian   -0.02
    749 x          7.319873      7.312948    -0.006925    Cartesian   -0.09
    749 y         14.676355     14.677453     0.001097    Cartesian    0.01
    749 z         -5.672201     -5.672208    -0.000007    Cartesian    0.00
    750 x         12.276936     12.276471    -0.000466    Cartesian   -0.00
    750 y         -2.783697     -2.783504     0.000193    Cartesian   -0.01
    750 z        -11.762620    -11.753895     0.008725    Cartesian   -0.07
    751 x          6.456869      6.473140     0.016271    Cartesian    0.25
    751 y         -0.693920     -0.694627    -0.000707    Cartesian    0.10
    751 z        -13.985807    -13.980907     0.004900    Cartesian   -0.04
    752 x         -0.613393     -0.610198     0.003195    Cartesian   -0.52
    752 y        -10.930662    -10.931247    -0.000585    Cartesian    0.01
    752 z         -0.250028     -0.249852     0.000176    Cartesian   -0.07
    753 x          6.863767      6.862384    -0.001383    Cartesian   -0.02
    753 y         -8.798994     -8.786264     0.012730    Cartesian   -0.14
    753 z         -9.511058     -9.508081     0.002977    Cartesian   -0.03
    754 x         12.109258     12.108067    -0.001191    Cartesian   -0.01
    754 y         14.529363     14.527058    -0.002305    Cartesian   -0.02
    754 z          0.057193      0.059632     0.002439    Cartesian    4.26
    755 x         -1.199254     -1.199261    -0.000007    Cartesian    0.00
    755 y         -2.768468     -2.768746    -0.000278    Cartesian    0.01
    755 z        -11.635504    -11.634888     0.000615    Cartesian   -0.01
    756 x         15.979386     15.978944    -0.000441    Cartesian   -0.00
    756 y         10.322430     10.314372    -0.008058    Cartesian   -0.08
    756 z          5.053925      5.054011     0.000087    Cartesian    0.00
    757 x          7.801253      7.806985     0.005732    Cartesian    0.07
    757 y          8.923357      8.941105     0.017747    Cartesian    0.20
    757 z         12.181520     12.162950    -0.018571    Cartesian   -0.15
    758 x         -7.415563     -7.415865    -0.000302    Cartesian    0.00
    758 y          3.980267      3.983612     0.003345    Cartesian    0.08
    758 z          5.167793      5.163264    -0.004529    Cartesian   -0.09
    759 x         -2.515046     -2.513465     0.001580    Cartesian   -0.06
    759 y         -0.337567     -0.337656    -0.000089    Cartesian    0.03
    759 z        -11.595355    -11.592990     0.002365    Cartesian   -0.02
    760 x         17.284547     17.282216    -0.002331    Cartesian   -0.01
    760 y         -1.947267     -1.951040    -0.003773    Cartesian    0.19
    760 z          7.797572      7.800314     0.002742    Cartesian    0.04
    761 x         -6.780102     -6.765900     0.014202    Cartesian   -0.21
    761 y          8.529295      8.528702    -0.000592    Cartesian   -0.01
    761 z          2.435871      2.436319     0.000447    Cartesian    0.02
    762 x         17.803850     17.824309     0.020459    Cartesian    0.11
    762 y          6.624219      6.624827     0.000608    Cartesian    0.01
    762 z          6.284861      6.253497    -0.031365    Cartesian   -0.50
    763 x         -2.912458     -2.904771     0.007687    Cartesian   -0.26
    763 y          6.152727      6.144262    -0.008465    Cartesian   -0.14
    763 z        -10.819847    -10.818013     0.001834    Cartesian   -0.02
    764 x         -2.117505     -2.110230     0.007274    Cartesian   -0.34
    764 y          2.565966      2.565141    -0.000824    Cartesian   -0.03
    764 z         12.168273     12.160168    -0.008105    Cartesian   -0.07
    765 x         -6.176960     -6.169131     0.007829    Cartesian   -0.13
    765 y          8.444251      8.441813    -0.002438    Cartesian   -0.03
    765 z         -4.986746     -4.984815     0.001931    Cartesian   -0.04
    766 x         17.075456     17.063802    -0.011653    Cartesian   -0.07
    766 y         -6.522700     -6.506628     0.016072    Cartesian   -0.25
    766 z         -3.805073     -3.803147     0.001925    Cartesian   -0.05
    767 x         17.254420     17.243178    -0.011242    Cartesian   -0.07
    767 y         -6.579820     -6.564819     0.015001    Cartesian   -0.23
    767 z          3.105654      3.104808    -0.000845    Cartesian   -0.03
    768 x         17.170581     17.168047    -0.002534    Cartesian   -0.01
    768 y          2.076710      2.074303    -0.002406    Cartesian   -0.12
    768 z          9.015560      9.011188    -0.004372    Cartesian   -0.05
    769 x         12.862798     12.877822     0.015024    Cartesian    0.12
    769 y        -10.945891    -10.969501    -0.023610    Cartesian    0.22
    769 z         -0.377144     -0.366234     0.010910    Cartesian   -2.89
    770 x         -5.863386     -5.865097    -0.001711    Cartesian    0.03
    770 y         10.610487     10.623410     0.012924    Cartesian    0.12
    770 z          0.147652      0.151247     0.003594    Cartesian    2.43
    771 x         -7.331724     -7.343156    -0.011432    Cartesian    0.16
    771 y         -4.676263     -4.694957    -0.018695    Cartesian    0.40
    771 z         -0.742113     -0.729202     0.012912    Cartesian   -1.74
    772 x          1.335318      1.338351     0.003034    Cartesian    0.23
    772 y        -10.791285    -10.789345     0.001940    Cartesian   -0.02
    772 z         -6.042981     -6.039793     0.003188    Cartesian   -0.05
    773 x         11.379329     11.380229     0.000901    Cartesian    0.01
    773 y          8.798070      8.796084    -0.001985    Cartesian   -0.02
    773 z         11.482818     11.478457    -0.004361    Cartesian   -0.04
    774 x         -1.366932     -1.364208     0.002725    Cartesian   -0.20
    774 y         14.544592     14.542134    -0.002458    Cartesian   -0.02
    774 z          0.184309      0.183985    -0.000324    Cartesian   -0.18
    775 x         14.936761     14.939033     0.002272    Cartesian    0.02
    775 y          2.425449      2.426143     0.000694    Cartesian    0.03
    775 z         11.342454     11.339341    -0.003113    Cartesian   -0.03
    776 x          2.899437      2.904428     0.004991    Cartesian    0.17
    776 y          5.678700      5.684994     0.006294    Cartesian    0.11
    776 z        -13.845444    -13.856288    -0.010844    Cartesian    0.08
    777 x         11.233433     11.230192    -0.003241    Cartesian   -0.03
    777 y        -10.681226    -10.670169     0.011057    Cartesian   -0.10
    777 z         -5.471394     -5.471801    -0.000407    Cartesian    0.01
    778 x          7.780482      7.781489     0.001007    Cartesian    0.01
    778 y         -6.717802     -6.715570     0.002231    Cartesian   -0.03
    778 z        -11.799277    -11.795495     0.003782    Cartesian   -0.03
    779 x         -5.193686     -5.186348     0.007338    Cartesian   -0.14
    779 y         -6.208237     -6.204933     0.003304    Cartesian   -0.05
    779 z          5.623222      5.617415    -0.005806    Cartesian   -0.10
    780 x         -4.067222     -4.053576     0.013647    Cartesian   -0.34
    780 y         -6.967786     -6.979342    -0.011555    Cartesian    0.17
    780 z         -6.575215     -6.559095     0.016120    Cartesian   -0.25
    781 x         10.479893     10.479360    -0.000533    Cartesian   -0.01
    781 y         14.794028     14.787896    -0.006132    Cartesian   -0.04
    781 z         -5.037057     -5.034470     0.002587    Cartesian   -0.05
    782 x         17.615401     17.596908    -0.018493    Cartesian   -0.10
    782 y          8.296120      8.285898    -0.010222    Cartesian   -0.12
    782 z         -5.876123     -5.865640     0.010483    Cartesian   -0.18
    783 x         20.142152     20.179356     0.037204    Cartesian    0.18
    783 y          3.866283      3.857864    -0.008420    Cartesian   -0.22
    783 z         -2.510279     -2.525290    -0.015012    Cartesian    0.60
    784 x         -1.720092     -1.715191     0.004901    Cartesian   -0.28
    784 y         -3.924328     -3.921952     0.002376    Cartesian   -0.06
    784 z         11.392765     11.387855    -0.004910    Cartesian   -0.04
    785 x         19.536818     19.526573    -0.010246    Cartesian   -0.05
    785 y          3.949809      3.952962     0.003153    Cartesian    0.08
    785 z          4.913561      4.912717    -0.000844    Cartesian   -0.02
    786 x         -7.708494     -7.712045    -0.003551    Cartesian    0.05
    786 y          8.061364      8.066912     0.005548    Cartesian    0.07
    786 z         -0.524945     -0.522681     0.002263    Cartesian   -0.43
    787 x         10.940502     10.937988    -0.002514    Cartesian   -0.02
    787 y         -6.600129     -6.594608     0.005521    Cartesian   -0.08
    787 z        -11.164132    -11.161362     0.002770    Cartesian   -0.02
    788 x          8.739268      8.737389    -0.001879    Cartesian   -0.02
    788 y          9.835709      9.829896    -0.005813    Cartesian   -0.06
    788 z        -12.177900    -12.175690     0.002209    Cartesian   -0.02
    789 x         19.243887     19.231224    -0.012663    Cartesian   -0.07
    789 y          8.030906      8.031380     0.000473    Cartesian    0.01
    789 z         -0.779177     -0.774356     0.004820    Cartesian   -0.62
    790 x         -7.435327     -7.425261     0.010066    Cartesian   -0.14
    790 y         -2.266518     -2.261006     0.005512    Cartesian   -0.24
    790 z          5.723436      5.712696    -0.010740    Cartesian   -0.19
    791 x         14.141808     14.134994    -0.006814    Cartesian   -0.05
    791 y          6.012211      6.008737    -0.003474    Cartesian   -0.06
    791 z        -11.645666    -11.640433     0.005233    Cartesian   -0.04
    792 x         17.992171     17.988266    -0.003905    Cartesian   -0.02
    792 y         -4.441507     -4.439378     0.002129    Cartesian   -0.05
    792 z         -6.093291     -6.091248     0.002043    Cartesian   -0.03
    793 x         20.256118     20.227918    -0.028200    Cartesian   -0.14
    793 y         -0.157693     -0.140152     0.017541    Cartesian  -11.12
    793 z         -3.728267     -3.728068     0.000199    Cartesian   -0.01
    794 x         16.782525     16.772009    -0.010516    Cartesian   -0.06
    794 y         -2.441602     -2.427186     0.014417    Cartesian   -0.59
    794 z         -9.497810     -9.494201     0.003609    Cartesian   -0.04
    795 x         -5.507259     -5.503178     0.004082    Cartesian   -0.07
    795 y         -8.374473     -8.365852     0.008621    Cartesian   -0.10
    795 z          0.488823      0.483547    -0.005276    Cartesian   -1.08
    796 x          7.167984      7.167659    -0.000325    Cartesian   -0.00
    796 y          4.375848      4.372592    -0.003255    Cartesian   -0.07
    796 z         14.912220     14.908823    -0.003397    Cartesian   -0.02
    797 x          3.013403      3.017503     0.004100    Cartesian    0.14
    797 y          1.654724      1.656772     0.002048    Cartesian    0.12
    797 z        -15.063432    -15.060060     0.003372    Cartesian   -0.02

  Time to end of optimisation  =     1765.9445 seconds

  Timing analysis for GULP :

  Task / Subroutine                                          Time (Seconds)
  Calculation of reciprocal space energy and derivatives          0.0432
  Calculation of real space energy and derivatives                1.2062
  Calculation for region 1 energy and derivatives (2-b)         608.6180
  Calculation for region 2a energy                              671.8014
  Calculation for region 2b energy                                0.1608
  Calculation and manipulation of Hessian matrix                  0.4314
  Calculation of matrix inversion                               473.3470
  Symmetry generation of equivalent positions                     0.0003
  Global summation overhead                                       0.0002

  Dump file written as GaCl3.grs

  **** GULP has completed with   2 warnings - beware! ****

  Job Finished at 00:38.44 26th August     2021