  Job Started  at 14:32.47  2nd January    2021

  Number of CPUs =     1

  Total number of configurations input =      1

*  Input for Configuration =   1                                               *

  Formula = ClONa3

  Number of irreducible atoms/shells =       5

  Total number atoms/shells =       7

  Dimensionality = 3               :  Bulk

  Symmetry :

  Crystal family                   :  Cubic
  Crystal class  (Groth - 1921)    :  Cubic Hexakisoctahedral

  Space group (centrosymmetric)    :  P M 3 M

  Patterson group                  :  P m -3 m

  Cartesian lattice vectors (Angstroms) :

        4.504000    0.000000    0.000000
        0.000000    4.504000    0.000000
        0.000000    0.000000    4.504000

  Cell parameters (Angstroms/Degrees):

  a =       4.5040    alpha =  90.0000
  b =       4.5040    beta  =  90.0000
  c =       4.5040    gamma =  90.0000

  Initial cell volume =          91.368216 Angs**3

  Temperature of configuration =   0.00     K

  Pressure of configuration =         0.000 GPa

  Fractional coordinates of asymmetric unit :

   No.  Atomic       x           y          z         Charge      Occupancy
        Label      (Frac)      (Frac)     (Frac)        (e)         (Frac)
      1 Cl    c    0.000000    0.000000    0.000000     1.48500    1.000000
      2 O     c    0.500000    0.500000    0.500000     0.18300    1.000000
      3 Na    c    0.500000    0.500000    0.000000     1.00000    1.000000
      4 Cl    s    0.000000    0.000000    0.000000    -2.48500    1.000000
      5 O     s    0.500000    0.500000    0.500000    -2.18300    1.000000

  Constraints :

  Constraint no.      Unconstrained     Constrained    Coefficient    Offset
                         Variable         Variable
           1              Strain 1        Strain 2       1.00000      0.0000
           2              Strain 1        Strain 3       1.00000      0.0000

*  General input information                                                   *

  Species output for all configurations :

  Species    Type    Atomic    Atomic    Charge       Radii (Angs)     Library
                     Number     Mass       (e)     Cova   Ionic  VDW   Symbol
    Na       Core       11      22.99   1.000000   0.970  0.000  2.300
    O        Core        8      16.00   0.183000   0.730  0.000  1.360
    O        Shell       8       0.00  -2.183000   0.730  0.000  1.360
    Cl       Core       17      35.45   1.485000   0.990  0.000  1.650
    Cl       Shell      17       0.00  -2.485000   0.990  0.000  1.650
    Mg       Core       12      24.31   0.415000   1.100  0.000  0.000
    Mg       Shell      12       0.00   1.585000   1.100  0.000  0.000
    Ca       Core       20      40.08  -1.135000   0.990  0.000  0.000
    Ca       Shell      20       0.00   3.135000   0.990  0.000  0.000
    Sr       Core       38      87.62  -1.251000   1.120  0.000  0.000
    Sr       Shell      38       0.00   3.251000   1.120  0.000  0.000
    Ba       Core       56     137.33  -7.203000   1.340  0.000  0.000
    Ba       Shell      56       0.00   9.203000   1.340  0.000  0.000

  Lattice summation method               =    Ewald          (3-D)
                                         =    Parry          (2-D)
                                         =    Saunders et al (1-D)
  Accuracy factor for lattice sums       =   12.000

  Analytic derivatives to be used

  Time limit = Infinity

  Maximum range for interatomic potentials =    100000.000000 Angstroms

  General interatomic potentials :

Atom  Types   Potential      Parameter       Value         Units   Cutoffs(Ang)
  1     2                                                            Min /  Max
O    c O    s Spring (c-s)  Spring k 2       593.71600    eV*Ang^-2 0.000  0.800
                            Spring k 4       0.0000000    eV*Ang^-4
Cl   c Cl   s Spring (c-s)  Spring k 2       29.380000    eV*Ang^-2 0.000  0.800
                            Spring k 4       0.0000000    eV*Ang^-4
Mg   c Mg   s Spring (c-s)  Spring k 2       361.60000    eV*Ang^-2 0.000  0.800
                            Spring k 4       0.0000000    eV*Ang^-4
Ca   c Ca   s Spring (c-s)  Spring k 2       110.20000    eV*Ang^-2 0.000  0.800
                            Spring k 4       0.0000000    eV*Ang^-4
Sr   c Sr   s Spring (c-s)  Spring k 2       71.700000    eV*Ang^-2 0.000  0.800
                            Spring k 4       0.0000000    eV*Ang^-4
Ba   c Ba   s Spring (c-s)  Spring k 2       495.20000    eV*Ang^-2 0.000  0.800
                            Spring k 4       0.0000000    eV*Ang^-4
Na   c Na   c Buckingham    Buckingham A     1788.1900    eV        0.000 12.000
                            Buckingham rho  0.15900000    Ang
                            Buckingham C     0.0000000    eV*Ang^6
Na   c O    s Buckingham    Buckingham A     1226.8400    eV        0.000 12.000
                            Buckingham rho  0.30700000    Ang
                            Buckingham C     0.0000000    eV*Ang^6
Na   c Cl   s Buckingham    Buckingham A     2314.7000    eV        0.000 12.000
                            Buckingham rho  0.29000000    Ang
                            Buckingham C     0.0000000    eV*Ang^6
O    s O    s Buckingham    Buckingham A     22764.300    eV        0.000 12.000
                            Buckingham rho  0.14900000    Ang
                            Buckingham C     13.190000    eV*Ang^6
O    s Cl   s Buckingham    Buckingham A     8286.9100    eV        0.000 12.000
                            Buckingham rho  0.25900000    Ang
                            Buckingham C     62.200000    eV*Ang^6
Cl   s Cl   s Buckingham    Buckingham A     1227.2000    eV        0.000 12.000
                            Buckingham rho  0.32100000    Ang
                            Buckingham C     14.530000    eV*Ang^6
O    s Mg   s Buckingham    Buckingham A     1428.5000    eV        0.000 12.000
                            Buckingham rho  0.29450000    Ang
                            Buckingham C     0.0000000    eV*Ang^6
Mg   s Cl   s Buckingham    Buckingham A     4914.5400    eV        0.000 12.000
                            Buckingham rho  0.25700000    Ang
                            Buckingham C     0.0000000    eV*Ang^6
O    s Ca   s Buckingham    Buckingham A     1090.4000    eV        0.000 12.000
                            Buckingham rho  0.34370000    Ang
                            Buckingham C     0.0000000    eV*Ang^6
Cl   s Ca   s Buckingham    Buckingham A     2302.0000    eV        0.000 12.000
                            Buckingham rho  0.34020000    Ang
                            Buckingham C     0.0000000    eV*Ang^6
O    s Sr   s Buckingham    Buckingham A     959.10000    eV        0.000 12.000
                            Buckingham rho  0.37210000    Ang
                            Buckingham C     0.0000000    eV*Ang^6
Cl   s Sr   s Buckingham    Buckingham A     2191.0900    eV        0.000 12.000
                            Buckingham rho  0.34570000    Ang
                            Buckingham C     0.0000000    eV*Ang^6
O    s Ba   s Buckingham    Buckingham A     905.70000    eV        0.000 12.000
                            Buckingham rho  0.39760000    Ang
                            Buckingham C     0.0000000    eV*Ang^6
Cl   s Ba   s Buckingham    Buckingham A     2704.5500    eV        0.000 12.000
                            Buckingham rho  0.35280000    Ang
                            Buckingham C     0.0000000    eV*Ang^6

*  Output for configuration   1                                                *

  Components of energy :

  Interatomic potentials     =           5.13022605 eV
  Monopole - monopole (real) =         -10.03624526 eV
  Monopole - monopole (recip)=         -29.53581274 eV
  Monopole - monopole (total)=         -39.57205800 eV
  Total lattice energy       =         -34.44183194 eV
  Total lattice energy       =           -3323.1103 kJ/(mole unit cells)

  Number of variables =        1

  Maximum number of calculations  =          1000
  Maximum Hessian update interval =            10
  Maximum step size               =   1.000000000
  Maximum parameter tolerance     =   0.000010000
  Maximum function  tolerance     =   0.000010000
  Maximum gradient  tolerance     =   0.001000000
  Maximum gradient  component     =   0.010000000

  Symmetry constrained optimisation

  Symmetry used for second derivatives

  Cell parameters to be optimised using strains

  Newton-Raphson optimiser to be used

  BFGS hessian update to be used

  Lower half triangular hessian to be used

  Start of bulk optimisation :

  ** Hessian calculated **

  **** Optimisation achieved ****

  Final energy =     -34.44191447 eV
  Final Gnorm  =       0.00000000

  Components of energy :

  Interatomic potentials     =           5.09689708 eV
  Monopole - monopole (real) =         -10.02781331 eV
  Monopole - monopole (recip)=         -29.51099824 eV
  Monopole - monopole (total)=         -39.53881155 eV
  Total lattice energy       =         -34.44191447 eV
  Total lattice energy       =           -3323.1183 kJ/(mole unit cells)

  Final asymmetric unit coordinates :

   No.  Atomic        x           y           z         Radius
        Label       (Frac)      (Frac)      (Frac)       (Angs)
     1  Cl    c     0.000000    0.000000    0.000000    0.000000
     2  O     c     0.500000    0.500000    0.500000    0.000000
     3  Na    c     0.500000    0.500000    0.000000    0.000000
     4  Cl    s     0.000000    0.000000    0.000000    0.000000
     5  O     s     0.500000    0.500000    0.500000    0.000000

  Final Cartesian lattice vectors (Angstroms) :

        4.507787    0.000000    0.000000
        0.000000    4.507787    0.000000
        0.000000    0.000000    4.507787

  Final cell parameters and derivatives :

       a            4.507787 Angstrom     dE/de1(xx)     0.000000 eV/strain
       b            4.507787 Angstrom     dE/de2(yy)     0.000000 eV/strain
       c            4.507787 Angstrom     dE/de3(zz)     0.000000 eV/strain
       alpha       90.000000 Degrees      dE/de4(yz)     0.000000 eV/strain
       beta        90.000000 Degrees      dE/de5(xz)     0.000000 eV/strain
       gamma       90.000000 Degrees      dE/de6(xy)     0.000000 eV/strain

  Primitive cell volume =            91.598892 Angs**3

  Density of cell =      2.183054 g/cm**3

  Non-primitive cell volume =            91.598892 Angs**3

  Final internal derivatives :

   No.  Atomic          a             b             c           Radius
        Label          (eV)          (eV)          (eV)        (eV/Angs)
      1 Cl    c       0.000000      0.000000      0.000000      0.000000
      2 O     c       0.000000      0.000000      0.000000      0.000000
      3 Na    c       0.000000      0.000000      0.000000      0.000000
      4 Cl    s       0.000000      0.000000      0.000000      0.000000
      5 O     s       0.000000      0.000000      0.000000      0.000000
  Maximum abs         0.000000      0.000000      0.000000      0.000000

  Comparison of initial and final structures :

[...]
   309  Cl    s     9.052124    9.052124    0.000000    0.000000   -2.485000
   310  Cl    s     9.052124   -4.544337    0.000000    0.000000   -2.485000
   311  Cl    s    -4.544337    9.052124    0.000000    0.000000   -2.485000
   312  Cl    s    -4.544337   -4.544337    0.000000    0.000000   -2.485000

  Final coordinates of symmetry reduced region 1 (relative to defect centre):

   No.  Atomic        x           y           z          Charge
        Label       (Angs)      (Angs)      (Angs)         (e)
     1  O     c     0.000000    0.000000   -2.310544    0.183000
     2  Cl    c     2.378551    2.378551    0.000000    1.485000
     3  Na    c     2.176124    0.000000   -1.838038    1.000000
     4  Na    c     0.000000    0.000000    4.493579    1.000000
     5  Na    c     0.000000   -4.826457    0.000000    1.000000
     6  O     c     0.000000   -4.467389   -2.231058    0.183000
     7  Na    c     2.249701   -4.457972   -2.237870    1.000000
     8  Cl    c     2.350412    2.350412    4.630034    1.485000
     9  Na    c     0.000000   -4.193432    4.481722    1.000000
    10  Na    c    -4.500218   -4.500218    0.000000    1.000000
    11  O     c    -4.508762   -4.508762   -2.259725    0.183000
    12  O     c     0.000000    0.000000    6.784040    0.183000
    13  Cl    c     2.268495    6.780190    0.000000    1.485000
    14  Na    c     2.240822    0.000000    6.838446    1.000000
    15  Na    c     6.726392    0.000000   -2.487815    1.000000
    16  Na    c     4.489476   -4.489476    4.511602    1.000000
    17  O     c     0.000000   -4.482807    6.749715    0.183000
    18  Cl    c     2.255990    6.810123    4.508504    1.485000
    19  Na    c     2.255616   -4.500374    6.719078    1.000000
    20  Na    c     6.757732   -4.494914   -2.264151    1.000000
    21  Na    c     0.000000    0.000000    9.037395    1.000000
    22  Na    c     0.000000    8.879445    0.000000    1.000000
    23  O     c     0.000000    8.992423   -2.264607    0.183000
    24  O     c     4.518119    4.518119    6.771150    0.183000
    25  Cl    c     2.235283    2.235283    9.063993    1.485000
    26  Na    c     2.249907    8.989877   -2.232299    1.000000
    27  Cl    c     6.794802    6.794802    0.000000    1.485000
    28  Na    c     6.739032    0.000000    6.680530    1.000000
    29  O     s     0.000000    0.000000   -2.310675   -2.183000
    30  Cl    s     2.380303    2.380303    0.000000   -2.485000
    31  O     s     0.000000   -4.467461   -2.231042   -2.183000
    32  Cl    s     2.362690    2.362690    4.643864   -2.485000
    33  O     s    -4.508760   -4.508760   -2.259729   -2.183000
    34  O     s     0.000000    0.000000    6.784125   -2.183000
    35  Cl    s     2.266053    6.780816    0.000000   -2.485000
    36  O     s     0.000000   -4.482754    6.749736   -2.183000
    37  Cl    s     2.253562    6.816401    4.506892   -2.485000
    38  O     s     0.000000    8.992409   -2.264663   -2.183000
    39  O     s     4.518133    4.518133    6.771150   -2.183000
    40  Cl    s     2.232188    2.232188    9.066908   -2.485000
    41  Cl    s     6.798231    6.798231    0.000000   -2.485000

  Final derivatives for region 1 :

   No.  Atomic          x             y             z            Radius
        Label       (eV/Angs)     (eV/Angs)     (eV/Angs)       (eV/Angs)
     1  O     c       0.000000      0.000000     -0.001252      0.000000
     2  Cl    c      -0.001173      0.000000      0.000000      0.000000
     3  Na    c      -0.000171      0.000000      0.000086      0.000000
     4  Na    c       0.000000      0.000000      0.000077      0.000000
     5  Na    c       0.000000     -0.000006      0.000000      0.000000
     6  O     c       0.000000     -0.001981     -0.002425      0.000000
     7  Na    c      -0.000245      0.000131     -0.000042      0.000000
     8  Cl    c      -0.001427      0.000000     -0.000376      0.000000
     9  Na    c       0.000000      0.000238      0.000270      0.000000
    10  Na    c       0.000359      0.000000      0.000000      0.000000
    11  O     c      -0.002307      0.000000     -0.000335      0.000000
    12  O     c       0.000000      0.000000     -0.000567      0.000000
    13  Cl    c       0.000212     -0.000039      0.000000      0.000000
    14  Na    c       0.000021      0.000000      0.000021      0.000000
    15  Na    c      -0.000281      0.000000     -0.000612      0.000000
    16  Na    c       0.000030      0.000000     -0.000135      0.000000
    17  O     c       0.000000     -0.003625      0.001395      0.000000
    18  Cl    c       0.001112     -0.001347      0.000365      0.000000
    19  Na    c      -0.000031      0.000072     -0.000286      0.000000
    20  Na    c      -0.000269     -0.000138      0.000889      0.000000
    21  Na    c       0.000000      0.000000     -0.000026      0.000000
    22  Na    c       0.000000     -0.000172      0.000000      0.000000
    23  O     c       0.000000      0.002981      0.002830      0.000000
    24  O     c      -0.001611      0.000000     -0.000252      0.000000
    25  Cl    c       0.001031      0.000000     -0.000634      0.000000
    26  Na    c      -0.000082      0.000086      0.000219      0.000000
    27  Cl    c      -0.000411      0.000000      0.000000      0.000000
    28  Na    c      -0.000141      0.000000     -0.000132      0.000000
    29  O     s       0.000000      0.000000     -0.000795      0.000000
    30  Cl    s      -0.000426      0.000000      0.000000      0.000000
    31  O     s       0.000000      0.000348     -0.000348      0.000000
    32  Cl    s      -0.003120      0.000000     -0.002357      0.000000
    33  O     s       0.000250      0.000000      0.000088      0.000000
    34  O     s       0.000000      0.000000     -0.000765      0.000000
    35  Cl    s      -0.000609     -0.000166      0.000000      0.000000
    36  O     s       0.000000     -0.003565      0.001079      0.000000
    37  Cl    s       0.000333     -0.001614     -0.000214      0.000000
    38  O     s       0.000000      0.001699      0.003254      0.000000
    39  O     s      -0.001694      0.000000     -0.000478      0.000000
    40  Cl    s       0.001137      0.000000     -0.000157      0.000000
    41  Cl    s      -0.000071      0.000000      0.000000      0.000000

  Comparison of initial and final region 1 :

  Parameter   Initial value   Final value   Difference    Units      Percent
      1 x          2.253894      2.253894     0.000000    Cartesian    0.00
      1 y          2.253894      2.253894     0.000000    Cartesian    0.00
      1 z         -2.253894     -2.310544    -0.056650    Cartesian    2.51
      2 x          4.507787      4.632444     0.124657    Cartesian    2.77
      2 y          4.507787      4.632444     0.124657    Cartesian    2.77
      2 z          0.000000      0.000000     0.000000    Cartesian    0.00
      3 x          4.507787      4.430017    -0.077770    Cartesian   -1.73
      3 y          2.253894      2.253894     0.000000    Cartesian    0.00
      3 z         -2.253894     -1.838038     0.415856    Cartesian  -18.45
      4 x          2.253894      2.253894     0.000000    Cartesian    0.00
      4 y          2.253894      2.253894     0.000000    Cartesian    0.00
      4 z          4.507787      4.493579    -0.014208    Cartesian   -0.32
      5 x          2.253894      2.253894     0.000000    Cartesian    0.00
      5 y         -2.253894     -2.572563    -0.318669    Cartesian   14.14
      5 z          0.000000      0.000000     0.000000    Cartesian    0.00
      6 x          2.253894      2.253894     0.000000    Cartesian    0.00
      6 y         -2.253894     -2.213496     0.040398    Cartesian   -1.79
      6 z         -2.253894     -2.231058     0.022835    Cartesian   -1.01
      7 x          4.507787      4.503595    -0.004192    Cartesian   -0.09
      7 y         -2.253894     -2.204078     0.049815    Cartesian   -2.21
      7 z         -2.253894     -2.237870     0.016024    Cartesian   -0.71
      8 x          4.507787      4.604306     0.096519    Cartesian    2.14
      8 y          4.507787      4.604306     0.096519    Cartesian    2.14
      8 z          4.507787      4.630034     0.122247    Cartesian    2.71
      9 x          2.253894      2.253894     0.000000    Cartesian    0.00
      9 y         -2.253894     -1.939538     0.314355    Cartesian  -13.95
      9 z          4.507787      4.481722    -0.026065    Cartesian   -0.58
     10 x         -2.253894     -2.246324     0.007570    Cartesian   -0.34
     10 y         -2.253894     -2.246324     0.007570    Cartesian   -0.34
     10 z          0.000000      0.000000     0.000000    Cartesian    0.00
     11 x         -2.253894     -2.254869    -0.000975    Cartesian    0.04
     11 y         -2.253894     -2.254869    -0.000975    Cartesian    0.04
     11 z         -2.253894     -2.259725    -0.005831    Cartesian    0.26
     12 x          2.253894      2.253894     0.000000    Cartesian    0.00
     12 y          2.253894      2.253894     0.000000    Cartesian    0.00
     12 z          6.761681      6.784040     0.022359    Cartesian    0.33
     13 x          4.507787      4.522388     0.014601    Cartesian    0.32
     13 y          9.015574      9.034084     0.018509    Cartesian    0.21
     13 z          0.000000      0.000000     0.000000    Cartesian    0.00
     14 x          4.507787      4.494716    -0.013071    Cartesian   -0.29
     14 y          2.253894      2.253894     0.000000    Cartesian    0.00
     14 z          6.761681      6.838446     0.076765    Cartesian    1.14
     15 x          9.015574      8.980286    -0.035289    Cartesian   -0.39
     15 y          2.253894      2.253894     0.000000    Cartesian    0.00
     15 z         -2.253894     -2.487815    -0.233922    Cartesian   10.38
     16 x          6.761681      6.743369    -0.018311    Cartesian   -0.27
     16 y         -2.253894     -2.235582     0.018311    Cartesian   -0.81
     16 z          4.507787      4.511602     0.003815    Cartesian    0.08
     17 x          2.253894      2.253894     0.000000    Cartesian    0.00
     17 y         -2.253894     -2.228914     0.024980    Cartesian   -1.11
     17 z          6.761681      6.749715    -0.011966    Cartesian   -0.18
     18 x          4.507787      4.509883     0.002096    Cartesian    0.05
     18 y          9.015574      9.064016     0.048442    Cartesian    0.54
     18 z          4.507787      4.508504     0.000717    Cartesian    0.02
     19 x          4.507787      4.509509     0.001722    Cartesian    0.04
     19 y         -2.253894     -2.246480     0.007413    Cartesian   -0.33
     19 z          6.761681      6.719078    -0.042603    Cartesian   -0.63
     20 x          9.015574      9.011626    -0.003949    Cartesian   -0.04
     20 y         -2.253894     -2.241020     0.012873    Cartesian   -0.57
     20 z         -2.253894     -2.264151    -0.010257    Cartesian    0.46
     21 x          2.253894      2.253894     0.000000    Cartesian    0.00
     21 y          2.253894      2.253894     0.000000    Cartesian    0.00
     21 z          9.015574      9.037395     0.021820    Cartesian    0.24
     22 x          2.253894      2.253894     0.000000    Cartesian    0.00
     22 y         11.269468     11.133339    -0.136129    Cartesian   -1.21
     22 z          0.000000      0.000000     0.000000    Cartesian    0.00
     23 x          2.253894      2.253894     0.000000    Cartesian    0.00
     23 y         11.269468     11.246317    -0.023151    Cartesian   -0.21
     23 z         -2.253894     -2.264607    -0.010714    Cartesian    0.48
     24 x          6.761681      6.772013     0.010332    Cartesian    0.15
     24 y          6.761681      6.772013     0.010332    Cartesian    0.15
     24 z          6.761681      6.771150     0.009470    Cartesian    0.14
     25 x          4.507787      4.489176    -0.018611    Cartesian   -0.41
     25 y          4.507787      4.489176    -0.018611    Cartesian   -0.41
     25 z          9.015574      9.063993     0.048419    Cartesian    0.54
     26 x          4.507787      4.503801    -0.003986    Cartesian   -0.09
     26 y         11.269468     11.243770    -0.025698    Cartesian   -0.23
     26 z         -2.253894     -2.232299     0.021595    Cartesian   -0.96
     27 x          9.015574      9.048695     0.033121    Cartesian    0.37
     27 y          9.015574      9.048695     0.033121    Cartesian    0.37
     27 z          0.000000      0.000000     0.000000    Cartesian    0.00
     28 x          9.015574      8.992925    -0.022649    Cartesian   -0.25
     28 y          2.253894      2.253894     0.000000    Cartesian    0.00
     28 z          6.761681      6.680530    -0.081151    Cartesian   -1.20
     29 x          2.253894      2.253894     0.000000    Cartesian    0.00
     29 y          2.253894      2.253894     0.000000    Cartesian    0.00
     29 z         -2.253894     -2.310675    -0.056782    Cartesian    2.52
     30 x          4.507787      4.634196     0.126409    Cartesian    2.80
     30 y          4.507787      4.634196     0.126409    Cartesian    2.80
     30 z          0.000000      0.000000     0.000000    Cartesian    0.00
     31 x          2.253894      2.253894     0.000000    Cartesian    0.00
     31 y         -2.253894     -2.213567     0.040326    Cartesian   -1.79
     31 z         -2.253894     -2.231042     0.022852    Cartesian   -1.01
     32 x          4.507787      4.616584     0.108797    Cartesian    2.41
     32 y          4.507787      4.616584     0.108797    Cartesian    2.41
     32 z          4.507787      4.643864     0.136077    Cartesian    3.02
     33 x         -2.253894     -2.254866    -0.000973    Cartesian    0.04
     33 y         -2.253894     -2.254866    -0.000973    Cartesian    0.04
     33 z         -2.253894     -2.259729    -0.005835    Cartesian    0.26
     34 x          2.253894      2.253894     0.000000    Cartesian    0.00
     34 y          2.253894      2.253894     0.000000    Cartesian    0.00
     34 z          6.761681      6.784125     0.022445    Cartesian    0.33
     35 x          4.507787      4.519947     0.012160    Cartesian    0.27
     35 y          9.015574      9.034709     0.019135    Cartesian    0.21
     35 z          0.000000      0.000000     0.000000    Cartesian    0.00
     36 x          2.253894      2.253894     0.000000    Cartesian    0.00
     36 y         -2.253894     -2.228860     0.025034    Cartesian   -1.11
     36 z          6.761681      6.749736    -0.011945    Cartesian   -0.18
     37 x          4.507787      4.507456    -0.000331    Cartesian   -0.01
     37 y          9.015574      9.070295     0.054720    Cartesian    0.61
     37 z          4.507787      4.506892    -0.000895    Cartesian   -0.02
     38 x          2.253894      2.253894     0.000000    Cartesian    0.00
     38 y         11.269468     11.246302    -0.023166    Cartesian   -0.21
     38 z         -2.253894     -2.264663    -0.010769    Cartesian    0.48
     39 x          6.761681      6.772027     0.010346    Cartesian    0.15
     39 y          6.761681      6.772027     0.010346    Cartesian    0.15
     39 z          6.761681      6.771150     0.009469    Cartesian    0.14
     40 x          4.507787      4.486081    -0.021706    Cartesian   -0.48
     40 y          4.507787      4.486081    -0.021706    Cartesian   -0.48
     40 z          9.015574      9.066908     0.051334    Cartesian    0.57
     41 x          9.015574      9.052124     0.036550    Cartesian    0.41
     41 y          9.015574      9.052124     0.036550    Cartesian    0.41
     41 z          0.000000      0.000000     0.000000    Cartesian    0.00

  Time to end of optimisation  =        4.2522 seconds

  Timing analysis for GULP :

  Task / Subroutine                                          Time (Seconds)
  Calculation of reciprocal space energy and derivatives          0.0002
  Calculation of reciprocal space energy using symmetry           0.0003
  Calculation of real space energy and derivatives                0.0012
  Calculation of real space energy using symmetry                 0.0028
  Calculation for region 1 energy and derivatives (2-b)           0.8652
  Calculation for region 2a energy                                3.3166
  Calculation and manipulation of Hessian matrix                  0.0152
  Calculation of matrix inversion                                 0.0005
  Symmetry generation of equivalent positions                     0.0015

  Dump file written as Na3OCl.grs

  Job Finished at 14:32.51  2nd January    2021