  Job Started  at 14:32.46  2nd January    2021

  Number of CPUs =     1

  Total number of configurations input =      1

*  Input for Configuration =   1                                               *

  Formula = ClONa3

  Number of irreducible atoms/shells =       5

  Total number atoms/shells =       7

  Dimensionality = 3               :  Bulk

  Symmetry :

  Crystal family                   :  Cubic
  Crystal class  (Groth - 1921)    :  Cubic Hexakisoctahedral

  Space group (centrosymmetric)    :  P M 3 M

  Patterson group                  :  P m -3 m

  Cartesian lattice vectors (Angstroms) :

        4.504000    0.000000    0.000000
        0.000000    4.504000    0.000000
        0.000000    0.000000    4.504000

  Cell parameters (Angstroms/Degrees):

  a =       4.5040    alpha =  90.0000
  b =       4.5040    beta  =  90.0000
  c =       4.5040    gamma =  90.0000

  Initial cell volume =          91.368216 Angs**3

  Temperature of configuration =   0.00     K

  Pressure of configuration =         0.000 GPa

  Fractional coordinates of asymmetric unit :

   No.  Atomic       x           y          z         Charge      Occupancy
        Label      (Frac)      (Frac)     (Frac)        (e)         (Frac)
      1 Cl    c    0.000000    0.000000    0.000000     1.48500    1.000000
      2 O     c    0.500000    0.500000    0.500000     0.18300    1.000000
      3 Na    c    0.500000    0.500000    0.000000     1.00000    1.000000
      4 Cl    s    0.000000    0.000000    0.000000    -2.48500    1.000000
      5 O     s    0.500000    0.500000    0.500000    -2.18300    1.000000

  Constraints :

  Constraint no.      Unconstrained     Constrained    Coefficient    Offset
                         Variable         Variable
           1              Strain 1        Strain 2       1.00000      0.0000
           2              Strain 1        Strain 3       1.00000      0.0000

*  General input information                                                   *

  Species output for all configurations :

  Species    Type    Atomic    Atomic    Charge       Radii (Angs)     Library
                     Number     Mass       (e)     Cova   Ionic  VDW   Symbol
    Na       Core       11      22.99   1.000000   0.970  0.000  2.300
    O        Core        8      16.00   0.183000   0.730  0.000  1.360
    O        Shell       8       0.00  -2.183000   0.730  0.000  1.360
    Cl       Core       17      35.45   1.485000   0.990  0.000  1.650
    Cl       Shell      17       0.00  -2.485000   0.990  0.000  1.650
    Mg       Core       12      24.31   0.415000   1.100  0.000  0.000
    Mg       Shell      12       0.00   1.585000   1.100  0.000  0.000
    Ca       Core       20      40.08  -1.135000   0.990  0.000  0.000
    Ca       Shell      20       0.00   3.135000   0.990  0.000  0.000
    Sr       Core       38      87.62  -1.251000   1.120  0.000  0.000
    Sr       Shell      38       0.00   3.251000   1.120  0.000  0.000
    Ba       Core       56     137.33  -7.203000   1.340  0.000  0.000
    Ba       Shell      56       0.00   9.203000   1.340  0.000  0.000

  Lattice summation method               =    Ewald          (3-D)
                                         =    Parry          (2-D)
                                         =    Saunders et al (1-D)
  Accuracy factor for lattice sums       =   12.000

  Analytic derivatives to be used

  Time limit = Infinity

  Maximum range for interatomic potentials =    100000.000000 Angstroms

  General interatomic potentials :

Atom  Types   Potential      Parameter       Value         Units   Cutoffs(Ang)
  1     2                                                            Min /  Max
O    c O    s Spring (c-s)  Spring k 2       593.71600    eV*Ang^-2 0.000  0.800
                            Spring k 4       0.0000000    eV*Ang^-4
Cl   c Cl   s Spring (c-s)  Spring k 2       29.380000    eV*Ang^-2 0.000  0.800
                            Spring k 4       0.0000000    eV*Ang^-4
Mg   c Mg   s Spring (c-s)  Spring k 2       361.60000    eV*Ang^-2 0.000  0.800
                            Spring k 4       0.0000000    eV*Ang^-4
Ca   c Ca   s Spring (c-s)  Spring k 2       110.20000    eV*Ang^-2 0.000  0.800
                            Spring k 4       0.0000000    eV*Ang^-4
Sr   c Sr   s Spring (c-s)  Spring k 2       71.700000    eV*Ang^-2 0.000  0.800
                            Spring k 4       0.0000000    eV*Ang^-4
Ba   c Ba   s Spring (c-s)  Spring k 2       495.20000    eV*Ang^-2 0.000  0.800
                            Spring k 4       0.0000000    eV*Ang^-4
Na   c Na   c Buckingham    Buckingham A     1788.1900    eV        0.000 12.000
                            Buckingham rho  0.15900000    Ang
                            Buckingham C     0.0000000    eV*Ang^6
Na   c O    s Buckingham    Buckingham A     1226.8400    eV        0.000 12.000
                            Buckingham rho  0.30700000    Ang
                            Buckingham C     0.0000000    eV*Ang^6
Na   c Cl   s Buckingham    Buckingham A     2314.7000    eV        0.000 12.000
                            Buckingham rho  0.29000000    Ang
                            Buckingham C     0.0000000    eV*Ang^6
O    s O    s Buckingham    Buckingham A     22764.300    eV        0.000 12.000
                            Buckingham rho  0.14900000    Ang
                            Buckingham C     13.190000    eV*Ang^6
O    s Cl   s Buckingham    Buckingham A     8286.9100    eV        0.000 12.000
                            Buckingham rho  0.25900000    Ang
                            Buckingham C     62.200000    eV*Ang^6
Cl   s Cl   s Buckingham    Buckingham A     1227.2000    eV        0.000 12.000
                            Buckingham rho  0.32100000    Ang
                            Buckingham C     14.530000    eV*Ang^6
O    s Mg   s Buckingham    Buckingham A     1428.5000    eV        0.000 12.000
                            Buckingham rho  0.29450000    Ang
                            Buckingham C     0.0000000    eV*Ang^6
Mg   s Cl   s Buckingham    Buckingham A     4914.5400    eV        0.000 12.000
                            Buckingham rho  0.25700000    Ang
                            Buckingham C     0.0000000    eV*Ang^6
O    s Ca   s Buckingham    Buckingham A     1090.4000    eV        0.000 12.000
                            Buckingham rho  0.34370000    Ang
                            Buckingham C     0.0000000    eV*Ang^6
Cl   s Ca   s Buckingham    Buckingham A     2302.0000    eV        0.000 12.000
                            Buckingham rho  0.34020000    Ang
                            Buckingham C     0.0000000    eV*Ang^6
O    s Sr   s Buckingham    Buckingham A     959.10000    eV        0.000 12.000
                            Buckingham rho  0.37210000    Ang
                            Buckingham C     0.0000000    eV*Ang^6
Cl   s Sr   s Buckingham    Buckingham A     2191.0900    eV        0.000 12.000
                            Buckingham rho  0.34570000    Ang
                            Buckingham C     0.0000000    eV*Ang^6
O    s Ba   s Buckingham    Buckingham A     905.70000    eV        0.000 12.000
                            Buckingham rho  0.39760000    Ang
                            Buckingham C     0.0000000    eV*Ang^6
Cl   s Ba   s Buckingham    Buckingham A     2704.5500    eV        0.000 12.000
                            Buckingham rho  0.35280000    Ang
                            Buckingham C     0.0000000    eV*Ang^6

*  Output for configuration   1                                                *

  Components of energy :

  Interatomic potentials     =           5.13022605 eV
  Monopole - monopole (real) =         -10.03624526 eV
  Monopole - monopole (recip)=         -29.53581274 eV
  Monopole - monopole (total)=         -39.57205800 eV
  Total lattice energy       =         -34.44183194 eV
  Total lattice energy       =           -3323.1103 kJ/(mole unit cells)

  Number of variables =        1

  Maximum number of calculations  =          1000
  Maximum Hessian update interval =            10
  Maximum step size               =   1.000000000
  Maximum parameter tolerance     =   0.000010000
  Maximum function  tolerance     =   0.000010000
  Maximum gradient  tolerance     =   0.001000000
  Maximum gradient  component     =   0.010000000

  Symmetry constrained optimisation

  Symmetry used for second derivatives

  Cell parameters to be optimised using strains

  Newton-Raphson optimiser to be used

  BFGS hessian update to be used

  Lower half triangular hessian to be used

  Start of bulk optimisation :

  ** Hessian calculated **

  **** Optimisation achieved ****

  Final energy =     -34.44191447 eV
  Final Gnorm  =       0.00000000

  Components of energy :

  Interatomic potentials     =           5.09689708 eV
  Monopole - monopole (real) =         -10.02781331 eV
  Monopole - monopole (recip)=         -29.51099824 eV
  Monopole - monopole (total)=         -39.53881155 eV
  Total lattice energy       =         -34.44191447 eV
  Total lattice energy       =           -3323.1183 kJ/(mole unit cells)

  Final asymmetric unit coordinates :

   No.  Atomic        x           y           z         Radius
        Label       (Frac)      (Frac)      (Frac)       (Angs)
     1  Cl    c     0.000000    0.000000    0.000000    0.000000
     2  O     c     0.500000    0.500000    0.500000    0.000000
     3  Na    c     0.500000    0.500000    0.000000    0.000000
     4  Cl    s     0.000000    0.000000    0.000000    0.000000
     5  O     s     0.500000    0.500000    0.500000    0.000000

  Final Cartesian lattice vectors (Angstroms) :

        4.507787    0.000000    0.000000
        0.000000    4.507787    0.000000
        0.000000    0.000000    4.507787

  Final cell parameters and derivatives :

       a            4.507787 Angstrom     dE/de1(xx)     0.000000 eV/strain
       b            4.507787 Angstrom     dE/de2(yy)     0.000000 eV/strain
       c            4.507787 Angstrom     dE/de3(zz)     0.000000 eV/strain
       alpha       90.000000 Degrees      dE/de4(yz)     0.000000 eV/strain
       beta        90.000000 Degrees      dE/de5(xz)     0.000000 eV/strain
       gamma       90.000000 Degrees      dE/de6(xy)     0.000000 eV/strain

  Primitive cell volume =            91.598892 Angs**3

  Density of cell =      2.183054 g/cm**3

  Non-primitive cell volume =            91.598892 Angs**3

  Final internal derivatives :

   No.  Atomic          a             b             c           Radius
        Label          (eV)          (eV)          (eV)        (eV/Angs)
      1 Cl    c       0.000000      0.000000      0.000000      0.000000
      2 O     c       0.000000      0.000000      0.000000      0.000000
      3 Na    c       0.000000      0.000000      0.000000      0.000000
      4 Cl    s       0.000000      0.000000      0.000000      0.000000
      5 O     s       0.000000      0.000000      0.000000      0.000000
  Maximum abs         0.000000      0.000000      0.000000      0.000000

  Comparison of initial and final structures :

[...]
    38  Cl    s     2.363504    2.363504    4.631755   -2.485000
    39  O     s    -4.512650   -4.512650   -2.261255   -2.183000
    40  O     s     0.000000    0.000000    6.790077   -2.183000
    41  Cl    s     2.281392    6.788509    0.000000   -2.485000
    42  O     s     0.000000   -4.488099    6.737506   -2.183000
    43  Cl    s     2.269741    6.822750    4.506053   -2.485000
    44  O     s     0.000000    8.996337   -2.269873   -2.183000
    45  O     s     4.514990    4.514990    6.766286   -2.183000
    46  Cl    s     2.235053    2.235053    9.046978   -2.485000
    47  Cl    s     6.787312    6.787312    0.000000   -2.485000
    48  O     s     9.019927   -4.513255   -2.254662   -2.183000
    49  Cl    s     6.795739    6.795739    4.522464   -2.485000

  Final derivatives for region 1 :

   No.  Atomic          x             y             z            Radius
        Label       (eV/Angs)     (eV/Angs)     (eV/Angs)       (eV/Angs)
     1  O     c       0.000000      0.000000     -0.000281      0.000000
     2  Cl    c      -0.000314      0.000000      0.000000      0.000000
     3  Na    c       0.000010      0.000000     -0.000029      0.000000
     4  Na    c       0.000000      0.000000     -0.000047      0.000000
     5  Na    c       0.000000     -0.000039      0.000000      0.000000
     6  O     c       0.000000     -0.000238     -0.001118      0.000000
     7  Na    c      -0.000379      0.000302     -0.000030      0.000000
     8  Cl    c      -0.000708      0.000000     -0.000387      0.000000
     9  Na    c       0.000000      0.000152      0.000015      0.000000
    10  Na    c       0.000332      0.000000      0.000000      0.000000
    11  O     c      -0.000335      0.000000      0.000114      0.000000
    12  O     c       0.000000      0.000000     -0.000334      0.000000
    13  Cl    c       0.000021     -0.000129      0.000000      0.000000
    14  Na    c      -0.000118      0.000000     -0.000156      0.000000
    15  Na    c      -0.000157      0.000000     -0.000338      0.000000
    16  Na    c       0.000078      0.000000      0.000062      0.000000
    17  O     c       0.000000     -0.000847      0.000755      0.000000
    18  Cl    c       0.000409     -0.000530      0.000217      0.000000
    19  Na    c       0.000076      0.000053     -0.000139      0.000000
    20  Na    c      -0.000105     -0.000073      0.000346      0.000000
    21  Na    c       0.000000      0.000000     -0.000027      0.000000
    22  Na    c       0.000000     -0.000029      0.000000      0.000000
    23  O     c       0.000000      0.000850      0.001304      0.000000
    24  O     c       0.000114      0.000000     -0.000044      0.000000
    25  Cl    c       0.000228      0.000000     -0.000215      0.000000
    26  Na    c       0.000012      0.000121      0.000044      0.000000
    27  Cl    c      -0.000276      0.000000      0.000000      0.000000
    28  Na    c      -0.000051      0.000000      0.000096      0.000000
    29  Na    c       0.000000      0.000161      0.000009      0.000000
    30  Na    c       0.000000      0.000105     -0.000087      0.000000
    31  Na    c      -0.000046     -0.000074      0.000000      0.000000
    32  O     c       0.000291      0.000380      0.000163      0.000000
    33  Cl    c      -0.000326      0.000000     -0.000061      0.000000
    34  Na    c       0.000019      0.000009      0.000046      0.000000
    35  O     s       0.000000      0.000000      0.000038      0.000000
    36  Cl    s      -0.000507      0.000000      0.000000      0.000000
    37  O     s       0.000000     -0.000760     -0.000768      0.000000
    38  Cl    s      -0.000846      0.000000     -0.000618      0.000000
    39  O     s      -0.000247      0.000000      0.000055      0.000000
    40  O     s       0.000000      0.000000     -0.000247      0.000000
    41  Cl    s      -0.000575      0.000077      0.000000      0.000000
    42  O     s       0.000000     -0.001263      0.000716      0.000000
    43  Cl    s      -0.000837     -0.000548     -0.000303      0.000000
    44  O     s       0.000000      0.000161      0.001548      0.000000
    45  O     s       0.000372      0.000000     -0.000088      0.000000
    46  Cl    s       0.000284      0.000000      0.000087      0.000000
    47  Cl    s       0.000006      0.000000      0.000000      0.000000
    48  O     s       0.000091      0.000876      0.000239      0.000000
    49  Cl    s      -0.000234      0.000000      0.000002      0.000000

  Comparison of initial and final region 1 :

  Parameter   Initial value   Final value   Difference    Units      Percent
      1 x          2.253894      2.253894     0.000000    Cartesian    0.00
      1 y          2.253894      2.253894     0.000000    Cartesian    0.00
      1 z         -2.253894     -2.307740    -0.053847    Cartesian    2.39
      2 x          4.507787      4.636616     0.128828    Cartesian    2.86
      2 y          4.507787      4.636616     0.128828    Cartesian    2.86
      2 z          0.000000      0.000000     0.000000    Cartesian    0.00
      3 x          4.507787      4.432272    -0.075515    Cartesian   -1.68
      3 y          2.253894      2.253894     0.000000    Cartesian    0.00
      3 z         -2.253894     -1.830599     0.423295    Cartesian  -18.78
      4 x          2.253894      2.253894     0.000000    Cartesian    0.00
      4 y          2.253894      2.253894     0.000000    Cartesian    0.00
      4 z          4.507787      4.496717    -0.011070    Cartesian   -0.25
      5 x          2.253894      2.253894     0.000000    Cartesian    0.00
      5 y         -2.253894     -2.609301    -0.355407    Cartesian   15.77
      5 z          0.000000      0.000000     0.000000    Cartesian    0.00
      6 x          2.253894      2.253894     0.000000    Cartesian    0.00
      6 y         -2.253894     -2.220578     0.033316    Cartesian   -1.48
      6 z         -2.253894     -2.227651     0.026243    Cartesian   -1.16
      7 x          4.507787      4.505079    -0.002708    Cartesian   -0.06
      7 y         -2.253894     -2.207871     0.046023    Cartesian   -2.04
      7 z         -2.253894     -2.215231     0.038663    Cartesian   -1.72
      8 x          4.507787      4.604283     0.096496    Cartesian    2.14
      8 y          4.507787      4.604283     0.096496    Cartesian    2.14
      8 z          4.507787      4.618893     0.111106    Cartesian    2.46
      9 x          2.253894      2.253894     0.000000    Cartesian    0.00
      9 y         -2.253894     -1.903491     0.350403    Cartesian  -15.55
      9 z          4.507787      4.474197    -0.033591    Cartesian   -0.75
     10 x         -2.253894     -2.280232    -0.026338    Cartesian    1.17
     10 y         -2.253894     -2.280232    -0.026338    Cartesian    1.17
     10 z          0.000000      0.000000     0.000000    Cartesian    0.00
     11 x         -2.253894     -2.258756    -0.004862    Cartesian    0.22
     11 y         -2.253894     -2.258756    -0.004862    Cartesian    0.22
     11 z         -2.253894     -2.261247    -0.007353    Cartesian    0.33
     12 x          2.253894      2.253894     0.000000    Cartesian    0.00
     12 y          2.253894      2.253894     0.000000    Cartesian    0.00
     12 z          6.761681      6.789969     0.028289    Cartesian    0.42
     13 x          4.507787      4.537094     0.029307    Cartesian    0.65
     13 y          9.015574      9.041410     0.025836    Cartesian    0.29
     13 z          0.000000      0.000000     0.000000    Cartesian    0.00
     14 x          4.507787      4.497516    -0.010271    Cartesian   -0.23
     14 y          2.253894      2.253894     0.000000    Cartesian    0.00
     14 z          6.761681      6.867404     0.105723    Cartesian    1.56
     15 x          9.015574      8.985761    -0.029813    Cartesian   -0.33
     15 y          2.253894      2.253894     0.000000    Cartesian    0.00
     15 z         -2.253894     -2.537798    -0.283905    Cartesian   12.60
     16 x          6.761681      6.715950    -0.045731    Cartesian   -0.68
     16 y         -2.253894     -2.208162     0.045731    Cartesian   -2.03
     16 z          4.507787      4.510147     0.002359    Cartesian    0.05
     17 x          2.253894      2.253894     0.000000    Cartesian    0.00
     17 y         -2.253894     -2.234253     0.019640    Cartesian   -0.87
     17 z          6.761681      6.737473    -0.024207    Cartesian   -0.36
     18 x          4.507787      4.524998     0.017211    Cartesian    0.38
     18 y          9.015574      9.070652     0.055077    Cartesian    0.61
     18 z          4.507787      4.507591    -0.000196    Cartesian   -0.00
     19 x          4.507787      4.507926     0.000139    Cartesian    0.00
     19 y         -2.253894     -2.243663     0.010231    Cartesian   -0.45
     19 z          6.761681      6.723474    -0.038207    Cartesian   -0.57
     20 x          9.015574      9.014960    -0.000615    Cartesian   -0.01
     20 y         -2.253894     -2.238735     0.015158    Cartesian   -0.67
     20 z         -2.253894     -2.286585    -0.032691    Cartesian    1.45
     21 x          2.253894      2.253894     0.000000    Cartesian    0.00
     21 y          2.253894      2.253894     0.000000    Cartesian    0.00
     21 z          9.015574      9.041272     0.025697    Cartesian    0.29
     22 x          2.253894      2.253894     0.000000    Cartesian    0.00
     22 y         11.269468     11.119380    -0.150088    Cartesian   -1.33
     22 z          0.000000      0.000000     0.000000    Cartesian    0.00
     23 x          2.253894      2.253894     0.000000    Cartesian    0.00
     23 y         11.269468     11.250225    -0.019243    Cartesian   -0.17
     23 z         -2.253894     -2.269812    -0.015919    Cartesian    0.71
     24 x          6.761681      6.768879     0.007198    Cartesian    0.11
     24 y          6.761681      6.768879     0.007198    Cartesian    0.11
     24 z          6.761681      6.766298     0.004617    Cartesian    0.07
     25 x          4.507787      4.492116    -0.015672    Cartesian   -0.35
     25 y          4.507787      4.492116    -0.015672    Cartesian   -0.35
     25 z          9.015574      9.046528     0.030954    Cartesian    0.34
     26 x          4.507787      4.507179    -0.000609    Cartesian   -0.01
     26 y         11.269468     11.246952    -0.022516    Cartesian   -0.20
     26 z         -2.253894     -2.219255     0.034638    Cartesian   -1.54
     27 x          9.015574      9.038842     0.023267    Cartesian    0.26
     27 y          9.015574      9.038842     0.023267    Cartesian    0.26
     27 z          0.000000      0.000000     0.000000    Cartesian    0.00
     28 x          9.015574      8.998205    -0.017369    Cartesian   -0.19
     28 y          2.253894      2.253894     0.000000    Cartesian    0.00
     28 z          6.761681      6.627243    -0.134438    Cartesian   -1.99
     29 x          2.253894      2.253894     0.000000    Cartesian    0.00
     29 y         11.269468     11.345514     0.076046    Cartesian    0.67
     29 z          4.507787      4.512037     0.004250    Cartesian    0.09
     30 x          2.253894      2.253894     0.000000    Cartesian    0.00
     30 y         -2.253894     -2.316817    -0.062923    Cartesian    2.79
     30 z          9.015574      8.998639    -0.016936    Cartesian   -0.19
     31 x         11.269468     11.238070    -0.031398    Cartesian   -0.28
     31 y         -2.253894     -2.270866    -0.016972    Cartesian    0.75
     31 z          0.000000      0.000000     0.000000    Cartesian    0.00
     32 x         11.269468     11.273821     0.004353    Cartesian    0.04
     32 y         -2.253894     -2.259349    -0.005456    Cartesian    0.24
     32 z         -2.253894     -2.254660    -0.000767    Cartesian    0.03
     33 x          9.015574      9.046554     0.030979    Cartesian    0.34
     33 y          9.015574      9.046554     0.030979    Cartesian    0.34
     33 z          4.507787      4.521426     0.013639    Cartesian    0.30
     34 x          9.015574      9.014282    -0.001293    Cartesian   -0.01
     34 y         -2.253894     -2.248222     0.005672    Cartesian   -0.25
     34 z          6.761681      6.746068    -0.015613    Cartesian   -0.23
     35 x          2.253894      2.253894     0.000000    Cartesian    0.00
     35 y          2.253894      2.253894     0.000000    Cartesian    0.00
     35 z         -2.253894     -2.307864    -0.053970    Cartesian    2.39
     36 x          4.507787      4.637787     0.130000    Cartesian    2.88
     36 y          4.507787      4.637787     0.130000    Cartesian    2.88
     36 z          0.000000      0.000000     0.000000    Cartesian    0.00
     37 x          2.253894      2.253894     0.000000    Cartesian    0.00
     37 y         -2.253894     -2.220644     0.033249    Cartesian   -1.48
     37 z         -2.253894     -2.227636     0.026258    Cartesian   -1.17
     38 x          4.507787      4.617398     0.109611    Cartesian    2.43
     38 y          4.507787      4.617398     0.109611    Cartesian    2.43
     38 z          4.507787      4.631755     0.123968    Cartesian    2.75
     39 x         -2.253894     -2.258756    -0.004863    Cartesian    0.22
     39 y         -2.253894     -2.258756    -0.004863    Cartesian    0.22
     39 z         -2.253894     -2.261255    -0.007361    Cartesian    0.33
     40 x          2.253894      2.253894     0.000000    Cartesian    0.00
     40 y          2.253894      2.253894     0.000000    Cartesian    0.00
     40 z          6.761681      6.790077     0.028396    Cartesian    0.42
     41 x          4.507787      4.535285     0.027498    Cartesian    0.61
     41 y          9.015574      9.042403     0.026828    Cartesian    0.30
     41 z          0.000000      0.000000     0.000000    Cartesian    0.00
     42 x          2.253894      2.253894     0.000000    Cartesian    0.00
     42 y         -2.253894     -2.234205     0.019688    Cartesian   -0.87
     42 z          6.761681      6.737506    -0.024175    Cartesian   -0.36
     43 x          4.507787      4.523635     0.015848    Cartesian    0.35
     43 y          9.015574      9.076644     0.061069    Cartesian    0.68
     43 z          4.507787      4.506053    -0.001734    Cartesian   -0.04
     44 x          2.253894      2.253894     0.000000    Cartesian    0.00
     44 y         11.269468     11.250230    -0.019238    Cartesian   -0.17
     44 z         -2.253894     -2.269873    -0.015979    Cartesian    0.71
     45 x          6.761681      6.768883     0.007203    Cartesian    0.11
     45 y          6.761681      6.768883     0.007203    Cartesian    0.11
     45 z          6.761681      6.766286     0.004606    Cartesian    0.07
     46 x          4.507787      4.488947    -0.018840    Cartesian   -0.42
     46 y          4.507787      4.488947    -0.018840    Cartesian   -0.42
     46 z          9.015574      9.046978     0.031404    Cartesian    0.35
     47 x          9.015574      9.041206     0.025631    Cartesian    0.28
     47 y          9.015574      9.041206     0.025631    Cartesian    0.28
     47 z          0.000000      0.000000     0.000000    Cartesian    0.00
     48 x         11.269468     11.273821     0.004353    Cartesian    0.04
     48 y         -2.253894     -2.259361    -0.005468    Cartesian    0.24
     48 z         -2.253894     -2.254662    -0.000768    Cartesian    0.03
     49 x          9.015574      9.049632     0.034058    Cartesian    0.38
     49 y          9.015574      9.049632     0.034058    Cartesian    0.38
     49 z          4.507787      4.522464     0.014676    Cartesian    0.33

  Time to end of optimisation  =        5.9624 seconds

  Timing analysis for GULP :

  Task / Subroutine                                          Time (Seconds)
  Calculation of reciprocal space energy and derivatives          0.0007
  Calculation of reciprocal space energy using symmetry           0.0008
  Calculation of real space energy and derivatives                0.0037
  Calculation of real space energy using symmetry                 0.0089
  Calculation for region 1 energy and derivatives (2-b)           1.3951
  Calculation for region 2a energy                                4.4578
  Calculation and manipulation of Hessian matrix                  0.0228
  Calculation of matrix inversion                                 0.0007
  Symmetry generation of equivalent positions                     0.0041

  Dump file written as Na3OCl.grs

  Job Finished at 14:32.52  2nd January    2021