  Job Started  at 15:19.00  2nd January    2021

  Number of CPUs =     1

  Total number of configurations input =      1

*  Input for Configuration =   1                                               *

  Formula = ClONa3

  Number of irreducible atoms/shells =       5

  Total number atoms/shells =       7

  Dimensionality = 3               :  Bulk

  Symmetry :

  Crystal family                   :  Cubic
  Crystal class  (Groth - 1921)    :  Cubic Hexakisoctahedral

  Space group (centrosymmetric)    :  P M 3 M

  Patterson group                  :  P m -3 m

  Cartesian lattice vectors (Angstroms) :

        4.504000    0.000000    0.000000
        0.000000    4.504000    0.000000
        0.000000    0.000000    4.504000

  Cell parameters (Angstroms/Degrees):

  a =       4.5040    alpha =  90.0000
  b =       4.5040    beta  =  90.0000
  c =       4.5040    gamma =  90.0000

  Initial cell volume =          91.368216 Angs**3

  Temperature of configuration =   0.00     K

  Pressure of configuration =         0.000 GPa

  Fractional coordinates of asymmetric unit :

   No.  Atomic       x           y          z         Charge      Occupancy
        Label      (Frac)      (Frac)     (Frac)        (e)         (Frac)
      1 Cl    c    0.000000    0.000000    0.000000     1.48500    1.000000
      2 O     c    0.500000    0.500000    0.500000     0.18300    1.000000
      3 Na    c    0.500000    0.500000    0.000000     1.00000    1.000000
      4 Cl    s    0.000000    0.000000    0.000000    -2.48500    1.000000
      5 O     s    0.500000    0.500000    0.500000    -2.18300    1.000000

  Constraints :

  Constraint no.      Unconstrained     Constrained    Coefficient    Offset
                         Variable         Variable
           1              Strain 1        Strain 2       1.00000      0.0000
           2              Strain 1        Strain 3       1.00000      0.0000

*  General input information                                                   *

  Species output for all configurations :

  Species    Type    Atomic    Atomic    Charge       Radii (Angs)     Library
                     Number     Mass       (e)     Cova   Ionic  VDW   Symbol
    Na       Core       11      22.99   1.000000   0.970  0.000  2.300
    O        Core        8      16.00   0.183000   0.730  0.000  1.360
    O        Shell       8       0.00  -2.183000   0.730  0.000  1.360
    Cl       Core       17      35.45   1.485000   0.990  0.000  1.650
    Cl       Shell      17       0.00  -2.485000   0.990  0.000  1.650
    Mg       Core       12      24.31   0.415000   1.100  0.000  0.000
    Mg       Shell      12       0.00   1.585000   1.100  0.000  0.000
    Ca       Core       20      40.08  -1.135000   0.990  0.000  0.000
    Ca       Shell      20       0.00   3.135000   0.990  0.000  0.000
    Sr       Core       38      87.62  -1.251000   1.120  0.000  0.000
    Sr       Shell      38       0.00   3.251000   1.120  0.000  0.000
    Ba       Core       56     137.33  -7.203000   1.340  0.000  0.000
    Ba       Shell      56       0.00   9.203000   1.340  0.000  0.000

  Lattice summation method               =    Ewald          (3-D)
                                         =    Parry          (2-D)
                                         =    Saunders et al (1-D)
  Accuracy factor for lattice sums       =   12.000

  Analytic derivatives to be used

  Time limit = Infinity

  Maximum range for interatomic potentials =    100000.000000 Angstroms

  General interatomic potentials :

Atom  Types   Potential      Parameter       Value         Units   Cutoffs(Ang)
  1     2                                                            Min /  Max
O    c O    s Spring (c-s)  Spring k 2       593.71600    eV*Ang^-2 0.000  0.800
                            Spring k 4       0.0000000    eV*Ang^-4
Cl   c Cl   s Spring (c-s)  Spring k 2       29.380000    eV*Ang^-2 0.000  0.800
                            Spring k 4       0.0000000    eV*Ang^-4
Mg   c Mg   s Spring (c-s)  Spring k 2       361.60000    eV*Ang^-2 0.000  0.800
                            Spring k 4       0.0000000    eV*Ang^-4
Ca   c Ca   s Spring (c-s)  Spring k 2       110.20000    eV*Ang^-2 0.000  0.800
                            Spring k 4       0.0000000    eV*Ang^-4
Sr   c Sr   s Spring (c-s)  Spring k 2       71.700000    eV*Ang^-2 0.000  0.800
                            Spring k 4       0.0000000    eV*Ang^-4
Ba   c Ba   s Spring (c-s)  Spring k 2       495.20000    eV*Ang^-2 0.000  0.800
                            Spring k 4       0.0000000    eV*Ang^-4
Na   c Na   c Buckingham    Buckingham A     1788.1900    eV        0.000 12.000
                            Buckingham rho  0.15900000    Ang
                            Buckingham C     0.0000000    eV*Ang^6
Na   c O    s Buckingham    Buckingham A     588.38000    eV        0.000 12.000
                            Buckingham rho  0.33800000    Ang
                            Buckingham C     0.0000000    eV*Ang^6
Na   c Cl   s Buckingham    Buckingham A     1170.4100    eV        0.000 12.000
                            Buckingham rho  0.31500000    Ang
                            Buckingham C     0.0000000    eV*Ang^6
O    s O    s Buckingham    Buckingham A     22764.300    eV        0.000 12.000
                            Buckingham rho  0.14900000    Ang
                            Buckingham C     13.190000    eV*Ang^6
O    s Cl   s Buckingham    Buckingham A     8286.9100    eV        0.000 12.000
                            Buckingham rho  0.25900000    Ang
                            Buckingham C     62.200000    eV*Ang^6
Cl   s Cl   s Buckingham    Buckingham A     1227.2000    eV        0.000 12.000
                            Buckingham rho  0.32100000    Ang
                            Buckingham C     14.530000    eV*Ang^6
O    s Mg   s Buckingham    Buckingham A     1428.5000    eV        0.000 12.000
                            Buckingham rho  0.29450000    Ang
                            Buckingham C     0.0000000    eV*Ang^6
Mg   s Cl   s Buckingham    Buckingham A     4914.5400    eV        0.000 12.000
                            Buckingham rho  0.25700000    Ang
                            Buckingham C     0.0000000    eV*Ang^6
O    s Ca   s Buckingham    Buckingham A     1090.4000    eV        0.000 12.000
                            Buckingham rho  0.34370000    Ang
                            Buckingham C     0.0000000    eV*Ang^6
Cl   s Ca   s Buckingham    Buckingham A     2302.0000    eV        0.000 12.000
                            Buckingham rho  0.34020000    Ang
                            Buckingham C     0.0000000    eV*Ang^6
O    s Sr   s Buckingham    Buckingham A     959.10000    eV        0.000 12.000
                            Buckingham rho  0.37210000    Ang
                            Buckingham C     0.0000000    eV*Ang^6
Cl   s Sr   s Buckingham    Buckingham A     2191.0900    eV        0.000 12.000
                            Buckingham rho  0.34570000    Ang
                            Buckingham C     0.0000000    eV*Ang^6
O    s Ba   s Buckingham    Buckingham A     905.70000    eV        0.000 12.000
                            Buckingham rho  0.39760000    Ang
                            Buckingham C     0.0000000    eV*Ang^6
Cl   s Ba   s Buckingham    Buckingham A     2704.5500    eV        0.000 12.000
                            Buckingham rho  0.35280000    Ang
                            Buckingham C     0.0000000    eV*Ang^6

*  Output for configuration   1                                                *

  Components of energy :

  Interatomic potentials     =           4.94315381 eV
  Monopole - monopole (real) =         -10.03624526 eV
  Monopole - monopole (recip)=         -29.53581274 eV
  Monopole - monopole (total)=         -39.57205800 eV
  Total lattice energy       =         -34.62890419 eV
  Total lattice energy       =           -3341.1599 kJ/(mole unit cells)

  Number of variables =        1

  Maximum number of calculations  =          1000
  Maximum Hessian update interval =            10
  Maximum step size               =   1.000000000
  Maximum parameter tolerance     =   0.000010000
  Maximum function  tolerance     =   0.000010000
  Maximum gradient  tolerance     =   0.001000000
  Maximum gradient  component     =   0.010000000

  Symmetry constrained optimisation

  Symmetry used for second derivatives

  Cell parameters to be optimised using strains

  Newton-Raphson optimiser to be used

  BFGS hessian update to be used

  Lower half triangular hessian to be used

  Start of bulk optimisation :

  ** Hessian calculated **

  **** Optimisation achieved ****

  Final energy =     -34.67767136 eV
  Final Gnorm  =       0.00000010

  Components of energy :

  Interatomic potentials     =           5.77546103 eV
  Monopole - monopole (real) =         -10.25970290 eV
  Monopole - monopole (recip)=         -30.19342950 eV
  Monopole - monopole (total)=         -40.45313239 eV
  Total lattice energy       =         -34.67767136 eV
  Total lattice energy       =           -3345.8652 kJ/(mole unit cells)

  Final asymmetric unit coordinates :

   No.  Atomic        x           y           z         Radius
        Label       (Frac)      (Frac)      (Frac)       (Angs)
     1  Cl    c     0.000000    0.000000    0.000000    0.000000
     2  O     c     0.500000    0.500000    0.500000    0.000000
     3  Na    c     0.500000    0.500000    0.000000    0.000000
     4  Cl    s     0.000000    0.000000    0.000000    0.000000
     5  O     s     0.500000    0.500000    0.500000    0.000000

  Final Cartesian lattice vectors (Angstroms) :

        4.405902    0.000000    0.000000
        0.000000    4.405902    0.000000
        0.000000    0.000000    4.405902

  Final cell parameters and derivatives :

       a            4.405902 Angstrom     dE/de1(xx)     0.000000 eV/strain
       b            4.405902 Angstrom     dE/de2(yy)     0.000000 eV/strain
       c            4.405902 Angstrom     dE/de3(zz)     0.000000 eV/strain
       alpha       90.000000 Degrees      dE/de4(yz)     0.000000 eV/strain
       beta        90.000000 Degrees      dE/de5(xz)     0.000000 eV/strain
       gamma       90.000000 Degrees      dE/de6(xy)     0.000000 eV/strain

  Primitive cell volume =            85.527266 Angs**3

  Density of cell =      2.338030 g/cm**3

  Non-primitive cell volume =            85.527266 Angs**3

  Final internal derivatives :

   No.  Atomic          a             b             c           Radius
        Label          (eV)          (eV)          (eV)        (eV/Angs)
      1 Cl    c       0.000000      0.000000      0.000000      0.000000
      2 O     c       0.000000      0.000000      0.000000      0.000000
      3 Na    c       0.000000      0.000000      0.000000      0.000000
      4 Cl    s       0.000000      0.000000      0.000000      0.000000
      5 O     s       0.000000      0.000000      0.000000      0.000000
  Maximum abs         0.000000      0.000000      0.000000      0.000000

  Comparison of initial and final structures :

[...]
    271 z          6.608853      6.608692    -0.000161    Cartesian   -0.00
    272 x          2.202951      2.202951     0.000000    Cartesian    0.00
    272 y         -6.608853     -6.650138    -0.041285    Cartesian    0.62
    272 z          2.202951      2.210435     0.007483    Cartesian    0.34
    273 x          6.608853      6.616066     0.007213    Cartesian    0.11
    273 y          6.608853      6.615194     0.006341    Cartesian    0.10
    273 z         -2.202951     -2.204224    -0.001273    Cartesian    0.06
    274 x          6.608853      6.616446     0.007592    Cartesian    0.11
    274 y         -2.202951     -2.211548    -0.008597    Cartesian    0.39
    274 z          6.608853      6.623449     0.014596    Cartesian    0.22
    275 x          4.405902      4.416203     0.010301    Cartesian    0.23
    275 y          0.000000     -0.003485    -0.003485    Cartesian    0.00
    275 z          8.811805      8.855766     0.043962    Cartesian    0.50
    276 x          4.405902      4.411073     0.005170    Cartesian    0.12
    276 y         -4.405902     -4.411720    -0.005818    Cartesian    0.13
    276 z         -4.405902     -4.426355    -0.020453    Cartesian    0.46
    277 x          8.811805      8.849234     0.037429    Cartesian    0.42
    277 y          4.405902      4.413604     0.007702    Cartesian    0.17
    277 z          4.405902      4.423292     0.017389    Cartesian    0.39
    278 x          4.405902      4.407706     0.001803    Cartesian    0.04
    278 y          8.811805      8.846179     0.034374    Cartesian    0.39
    278 z          0.000000      0.005531     0.005531    Cartesian    0.00
    279 x          2.202951      2.202951     0.000000    Cartesian    0.00
    279 y         -2.202951     -2.203580    -0.000629    Cartesian    0.03
    279 z         -6.608853     -6.591650     0.017203    Cartesian   -0.26
    280 x          2.202951      2.202951     0.000000    Cartesian    0.00
    280 y         -6.608853     -6.608108     0.000745    Cartesian   -0.01
    280 z         -2.202951     -2.195600     0.007351    Cartesian   -0.33
    281 x          4.405902      4.416854     0.010951    Cartesian    0.25
    281 y          4.405902      4.416582     0.010680    Cartesian    0.24
    281 z          8.811805      8.849515     0.037711    Cartesian    0.43
    282 x          8.811805      8.825032     0.013227    Cartesian    0.15
    282 y          0.000000      0.001937     0.001937    Cartesian    0.00
    282 z         -4.405902     -4.411360    -0.005458    Cartesian    0.12
    283 x          4.405902      4.406101     0.000198    Cartesian    0.00
    283 y          8.811805      8.849052     0.037247    Cartesian    0.42
    283 z          4.405902      4.420035     0.014133    Cartesian    0.32
    284 x          8.811805      8.836009     0.024205    Cartesian    0.27
    284 y         -4.405902     -4.406355    -0.000453    Cartesian    0.01
    284 z          0.000000     -0.002526    -0.002526    Cartesian    0.00
    285 x          6.608853      6.602047    -0.006806    Cartesian   -0.10
    285 y          2.202951      2.200483    -0.002468    Cartesian   -0.11
    285 z         -6.608853     -6.593575     0.015278    Cartesian   -0.23
    286 x          6.608853      6.624574     0.015721    Cartesian    0.24
    286 y          6.608853      6.622345     0.013492    Cartesian    0.20
    286 z          6.608853      6.627258     0.018405    Cartesian    0.28
    287 x          6.608853      6.597583    -0.011270    Cartesian   -0.17
    287 y         -6.608853     -6.600160     0.008693    Cartesian   -0.13
    287 z          2.202951      2.204092     0.001141    Cartesian    0.05
    288 x         11.014756     11.011319    -0.003436    Cartesian   -0.03
    288 y          2.202951      2.207041     0.004090    Cartesian    0.19
    288 z          2.202951      2.208068     0.005117    Cartesian    0.23
    289 x          8.811805      8.828655     0.016850    Cartesian    0.19
    289 y          4.405902      4.417371     0.011469    Cartesian    0.26
    289 z         -4.405902     -4.409750    -0.003848    Cartesian    0.09
    290 x          8.811805      8.839310     0.027505    Cartesian    0.31
    290 y         -4.405902     -4.402830     0.003072    Cartesian   -0.07
    290 z          4.405902      4.417205     0.011303    Cartesian    0.26
    291 x          2.202951      2.202951     0.000000    Cartesian    0.00
    291 y          6.608853      6.592016    -0.016838    Cartesian   -0.25
    291 z         -6.608853     -6.589223     0.019630    Cartesian   -0.30
    292 x          2.202951      2.202951     0.000000    Cartesian    0.00
    292 y         -6.608853     -6.605737     0.003116    Cartesian   -0.05
    292 z          6.608853      6.598937    -0.009916    Cartesian   -0.15
    293 x          6.608853      6.608632    -0.000221    Cartesian   -0.00
    293 y         -2.202951     -2.201333     0.001618    Cartesian   -0.07
    293 z         -6.608853     -6.604284     0.004569    Cartesian   -0.07
    294 x          6.608853      6.617836     0.008983    Cartesian    0.14
    294 y         -6.608853     -6.614602    -0.005749    Cartesian    0.09
    294 z         -2.202951     -2.209904    -0.006952    Cartesian    0.32
    295 x         11.014756     11.008832    -0.005924    Cartesian   -0.05
    295 y          2.202951      2.203535     0.000583    Cartesian    0.03
    295 z         -2.202951     -2.196822     0.006129    Cartesian   -0.28
    296 x         11.014756     11.001715    -0.013041    Cartesian   -0.12
    296 y         -2.202951     -2.203396    -0.000444    Cartesian    0.02
    296 z          2.202951      2.206670     0.003719    Cartesian    0.17
    297 x          4.405902      4.411304     0.005402    Cartesian    0.12
    297 y          8.811805      8.828631     0.016826    Cartesian    0.19
    297 z         -4.405902     -4.404163     0.001739    Cartesian   -0.04
    298 x          4.405902      4.411698     0.005796    Cartesian    0.13
    298 y         -4.405902     -4.404687     0.001215    Cartesian   -0.03
    298 z          8.811805      8.844641     0.032836    Cartesian    0.37
    299 x          2.202951      2.202951     0.000000    Cartesian    0.00
    299 y          2.202951      2.213533     0.010582    Cartesian    0.48
    299 z         11.014756     11.022530     0.007774    Cartesian    0.07
    300 x          2.202951      2.202951     0.000000    Cartesian    0.00
    300 y         11.014756     11.031846     0.017091    Cartesian    0.16
    300 z          2.202951      2.204951     0.002000    Cartesian    0.09
    301 x         11.014756     11.008780    -0.005976    Cartesian   -0.05
    301 y         -2.202951     -2.199159     0.003792    Cartesian   -0.17
    301 z         -2.202951     -2.198677     0.004274    Cartesian   -0.19
    302 x          4.405902      4.406027     0.000124    Cartesian    0.00
    302 y          0.000000      0.002158     0.002158    Cartesian    0.00
    302 z         -8.811805     -8.829208    -0.017404    Cartesian    0.20
    303 x          8.811805      8.830821     0.019017    Cartesian    0.22
    303 y          0.000000      0.006200     0.006200    Cartesian    0.00
    303 z          8.811805      8.830898     0.019094    Cartesian    0.22
    304 x          8.811805      8.825280     0.013475    Cartesian    0.15
    304 y          8.811805      8.829311     0.017506    Cartesian    0.20
    304 z          0.000000      0.000685     0.000685    Cartesian    0.00
    305 x          8.811805      8.825199     0.013394    Cartesian    0.15
    305 y         -4.405902     -4.411676    -0.005774    Cartesian    0.13
    305 z         -4.405902     -4.419879    -0.013977    Cartesian    0.32
    306 x          4.405902      4.409393     0.003490    Cartesian    0.08
    306 y         -8.811805     -8.840240    -0.028435    Cartesian    0.32
    306 z          0.000000     -0.001605    -0.001605    Cartesian    0.00
    307 x          2.202951      2.202951     0.000000    Cartesian    0.00
    307 y         11.014756     11.010564    -0.004192    Cartesian   -0.04
    307 z         -2.202951     -2.209052    -0.006101    Cartesian    0.28
    308 x          2.202951      2.202951     0.000000    Cartesian    0.00
    308 y         -2.202951     -2.215909    -0.012958    Cartesian    0.59
    308 z         11.014756     11.012643    -0.002113    Cartesian   -0.02
    309 x          6.608853      6.608415    -0.000439    Cartesian   -0.01
    309 y          6.608853      6.609517     0.000663    Cartesian    0.01
    309 z         -6.608853     -6.606929     0.001925    Cartesian   -0.03
    310 x          6.608853      6.618777     0.009924    Cartesian    0.15
    310 y         -6.608853     -6.616093    -0.007239    Cartesian    0.11
    310 z          6.608853      6.619277     0.010423    Cartesian    0.16
    311 x         11.014756     11.021560     0.006805    Cartesian    0.06
    311 y          2.202951      2.203934     0.000983    Cartesian    0.04
    311 z          6.608853      6.615254     0.006400    Cartesian    0.10
    312 x         11.014756     11.018699     0.003943    Cartesian    0.04
    312 y          6.608853      6.606581    -0.002272    Cartesian   -0.03
    312 z          2.202951      2.205563     0.002612    Cartesian    0.12
    313 x          8.811805      8.830932     0.019127    Cartesian    0.22
    313 y          8.811805      8.831900     0.020096    Cartesian    0.23
    313 z          4.405902      4.412202     0.006299    Cartesian    0.14
    314 x          4.405902      4.404977    -0.000925    Cartesian   -0.02
    314 y          4.405902      4.407391     0.001489    Cartesian    0.03
    314 z         -8.811805     -8.825029    -0.013225    Cartesian    0.15
    315 x          4.405902      4.408606     0.002704    Cartesian    0.06
    315 y         -8.811805     -8.841030    -0.029225    Cartesian    0.33
    315 z          4.405902      4.408479     0.002576    Cartesian    0.06
    316 x          8.811805      8.835867     0.024063    Cartesian    0.27
    316 y          4.405902      4.414002     0.008099    Cartesian    0.18
    316 z          8.811805      8.832295     0.020491    Cartesian    0.23
    317 x          2.202951      2.202951     0.000000    Cartesian    0.00
    317 y         -6.608853     -6.608011     0.000842    Cartesian   -0.01
    317 z         -6.608853     -6.610418    -0.001564    Cartesian    0.02
    318 x          6.608853      6.610171     0.001318    Cartesian    0.02
    318 y          2.202951      2.202291    -0.000660    Cartesian   -0.03
    318 z         11.014756     11.023404     0.008648    Cartesian    0.08
    319 x          6.608853      6.613594     0.004741    Cartesian    0.07
    319 y         11.014756     11.020140     0.005384    Cartesian    0.05
    319 z          2.202951      2.203180     0.000229    Cartesian    0.01
    320 x         11.014756     11.016570     0.001814    Cartesian    0.02
    320 y          6.608853      6.611667     0.002813    Cartesian    0.04
    320 z         -2.202951     -2.201289     0.001662    Cartesian   -0.08
    321 x         11.014756     11.017918     0.003163    Cartesian    0.03
    321 y         -2.202951     -2.201548     0.001403    Cartesian   -0.06
    321 z          6.608853      6.612287     0.003433    Cartesian    0.05
    322 x          4.405902      4.410631     0.004729    Cartesian    0.11
    322 y          8.811805      8.830927     0.019123    Cartesian    0.22
    322 z          8.811805      8.827324     0.015520    Cartesian    0.18
    323 x         13.217707     13.241047     0.023340    Cartesian    0.18
    323 y          0.000000     -0.000117    -0.000117    Cartesian    0.00
    323 z          0.000000     -0.000859    -0.000859    Cartesian    0.00
    324 x          6.608853      6.611436     0.002583    Cartesian    0.04
    324 y         11.014756     11.020140     0.005384    Cartesian    0.05
    324 z         -2.202951     -2.205331    -0.002380    Cartesian    0.11
    325 x          2.202951      2.202951     0.000000    Cartesian    0.00
    325 y          6.608853      6.607113    -0.001741    Cartesian   -0.03
    325 z         11.014756     11.020490     0.005734    Cartesian    0.05
    326 x          2.202951      2.202951     0.000000    Cartesian    0.00
    326 y         11.014756     11.017196     0.002440    Cartesian    0.02
    326 z          6.608853      6.617564     0.008710    Cartesian    0.13
    327 x          6.608853      6.613844     0.004991    Cartesian    0.08
    327 y         -2.202951     -2.205294    -0.002343    Cartesian    0.11
    327 z         11.014756     11.022952     0.008196    Cartesian    0.07
    328 x          4.405902      4.410348     0.004446    Cartesian    0.10
    328 y         -4.405902     -4.414276    -0.008374    Cartesian    0.19
    328 z         -8.811805     -8.829891    -0.018086    Cartesian    0.21
    329 x          4.405902      4.412746     0.006844    Cartesian    0.16
    329 y         -8.811805     -8.832301    -0.020497    Cartesian    0.23
    329 z         -4.405902     -4.421940    -0.016037    Cartesian    0.36
    330 x          8.811805      8.826629     0.014825    Cartesian    0.17
    330 y          8.811805      8.829517     0.017713    Cartesian    0.20
    330 z         -4.405902     -4.417589    -0.011686    Cartesian    0.27
    331 x          8.811805      8.832230     0.020425    Cartesian    0.23
    331 y         -4.405902     -4.414880    -0.008977    Cartesian    0.20
    331 z          8.811805      8.835010     0.023206    Cartesian    0.26
    332 x         13.217707     13.244639     0.026933    Cartesian    0.20
    332 y          0.000000     -0.001150    -0.001150    Cartesian    0.00
    332 z          4.405902      4.409993     0.004091    Cartesian    0.09
    333 x         13.217707     13.238473     0.020766    Cartesian    0.16
    333 y          4.405902      4.412650     0.006747    Cartesian    0.15
    333 z          0.000000     -0.001800    -0.001800    Cartesian    0.00
    334 x          6.608853      6.611875     0.003022    Cartesian    0.05
    334 y         -6.608853     -6.613663    -0.004810    Cartesian    0.07
    334 z         -6.608853     -6.613497    -0.004643    Cartesian    0.07
    335 x         11.014756     11.016743     0.001987    Cartesian    0.02
    335 y          2.202951      2.206535     0.003584    Cartesian    0.16
    335 z         -6.608853     -6.609736    -0.000883    Cartesian    0.01
    336 x         11.014756     11.022621     0.007865    Cartesian    0.07
    336 y          6.608853      6.614685     0.005831    Cartesian    0.09
    336 z          6.608853      6.613652     0.004799    Cartesian    0.07
    337 x         11.014756     11.018642     0.003886    Cartesian    0.04
    337 y         -6.608853     -6.608005     0.000849    Cartesian   -0.01
    337 z          2.202951      2.205955     0.003004    Cartesian    0.14
    338 x         13.217707     13.241394     0.023687    Cartesian    0.18
    338 y          4.405902      4.415777     0.009874    Cartesian    0.22
    338 z          4.405902      4.412654     0.006752    Cartesian    0.15
    339 x          8.811805      8.822041     0.010236    Cartesian    0.12
    339 y          0.000000     -0.002188    -0.002188    Cartesian    0.00
    339 z         -8.811805     -8.831915    -0.020110    Cartesian    0.23
    340 x          8.811805      8.828266     0.016462    Cartesian    0.19
    340 y         -8.811805     -8.837139    -0.025334    Cartesian    0.29
    340 z          0.000000     -0.004900    -0.004900    Cartesian    0.00

  Time to end of optimisation  =       33.3215 seconds

  Timing analysis for GULP :

  Task / Subroutine                                          Time (Seconds)
  Calculation of reciprocal space energy and derivatives          0.0007
  Calculation of reciprocal space energy using symmetry           0.0014
  Calculation of real space energy and derivatives                0.0043
  Calculation of real space energy using symmetry                 0.0136
  Calculation for region 1 energy and derivatives (2-b)          17.7854
  Calculation for region 2a energy                               14.1265
  Calculation for region 2b energy                                0.0046
  Calculation and manipulation of Hessian matrix                  0.1026
  Calculation of matrix inversion                                 1.0857
  Symmetry generation of equivalent positions                     0.0049

  Dump file written as Na3OCl.grs

  Job Finished at 15:19.35  2nd January    2021