  Job Started  at 12:18.46  5th March      2021

  Number of CPUs =     1

  Total number of configurations input =      1

*  Input for Configuration =   1                                               *

  Formula = ClONa3

  Number of irreducible atoms/shells =       5

  Total number atoms/shells =       7

  Dimensionality = 3               :  Bulk

  Symmetry :

  Crystal family                   :  Cubic
  Crystal class  (Groth - 1921)    :  Cubic Hexakisoctahedral

  Space group (centrosymmetric)    :  P M 3 M

  Patterson group                  :  P m -3 m

  Cartesian lattice vectors (Angstroms) :

        4.504000    0.000000    0.000000
        0.000000    4.504000    0.000000
        0.000000    0.000000    4.504000

  Cell parameters (Angstroms/Degrees):

  a =       4.5040    alpha =  90.0000
  b =       4.5040    beta  =  90.0000
  c =       4.5040    gamma =  90.0000

  Initial cell volume =          91.368216 Angs**3

  Temperature of configuration =   0.00     K

  Pressure of configuration =         0.000 GPa

  Fractional coordinates of asymmetric unit :

   No.  Atomic       x           y          z         Charge      Occupancy
        Label      (Frac)      (Frac)     (Frac)        (e)         (Frac)
      1 Cl    c    0.000000    0.000000    0.000000     0.99600    1.000000
      2 O     c    0.500000    0.500000    0.500000     1.44300    1.000000
      3 Na    c    0.500000    0.500000    0.000000     1.00000    1.000000
      4 Cl    s    0.000000    0.000000    0.000000    -1.99600    1.000000
      5 O     s    0.500000    0.500000    0.500000    -3.44300    1.000000

  Constraints :

  Constraint no.      Unconstrained     Constrained    Coefficient    Offset
                         Variable         Variable
           1              Strain 1        Strain 2       1.00000      0.0000
           2              Strain 1        Strain 3       1.00000      0.0000

*  General input information                                                   *

  Species output for all configurations :

  Species    Type    Atomic    Atomic    Charge       Radii (Angs)     Library
                     Number     Mass       (e)     Cova   Ionic  VDW   Symbol
    Na       Core       11      22.99   1.000000   0.970  0.000  2.300
    O        Core        8      16.00   1.443000   0.730  0.000  1.360
    O        Shell       8       0.00  -3.443000   0.730  0.000  1.360
    Cl       Core       17      35.45   0.996000   0.990  0.000  1.650
    Cl       Shell      17       0.00  -1.996000   0.990  0.000  1.650

  Lattice summation method               =    Ewald          (3-D)
                                         =    Parry          (2-D)
                                         =    Saunders et al (1-D)
  Accuracy factor for lattice sums       =   12.000

  Analytic derivatives to be used

  Time limit = Infinity

  Maximum range for interatomic potentials =    100000.000000 Angstroms

  General interatomic potentials :

Atom  Types   Potential      Parameter       Value         Units   Cutoffs(Ang)
  1     2                                                            Min /  Max
O    c O    s Spring (c-s)  Spring k 2       20.486200    eV*Ang^-2 0.000  0.800
                            Spring k 4       0.0000000    eV*Ang^-4
Cl   c Cl   s Spring (c-s)  Spring k 2       10.001500    eV*Ang^-2 0.000  0.800
                            Spring k 4       0.0000000    eV*Ang^-4
Na   c Na   c Buckingham    Buckingham A     29281.710    eV        0.000 12.000
                            Buckingham rho  0.37200000E-01Ang
                            Buckingham C     0.0000000    eV*Ang^6
Na   c O    s Buckingham    Buckingham A     602.40000    eV        0.000 12.000
                            Buckingham rho  0.34280000    Ang
                            Buckingham C     0.0000000    eV*Ang^6
Na   c Cl   s Buckingham    Buckingham A     3515.6900    eV        0.000 12.000
                            Buckingham rho  0.27460000    Ang
                            Buckingham C     0.0000000    eV*Ang^6
O    s O    s Buckingham    Buckingham A     25201.690    eV        0.000 12.000
                            Buckingham rho  0.16450000    Ang
                            Buckingham C     13.190000    eV*Ang^6
O    s Cl   s Buckingham    Buckingham A     1105.8600    eV        0.000 12.000
                            Buckingham rho  0.31330000    Ang
                            Buckingham C     62.200000    eV*Ang^6
Cl   s Cl   s Buckingham    Buckingham A     31408.750    eV        0.000 12.000
                            Buckingham rho  0.13660000    Ang
                            Buckingham C     14.530000    eV*Ang^6

*  Output for configuration   1                                                *

  Components of energy :

  Interatomic potentials     =           5.33200327 eV
  Monopole - monopole (real) =         -10.03624526 eV
  Monopole - monopole (recip)=         -29.53581274 eV
  Monopole - monopole (total)=         -39.57205800 eV
  Total lattice energy       =         -34.24005473 eV
  Total lattice energy       =           -3303.6419 kJ/(mole unit cells)

  Number of variables =        1

  Maximum number of calculations  =          1000
  Maximum Hessian update interval =            10
  Maximum step size               =   1.000000000
  Maximum parameter tolerance     =   0.000010000
  Maximum function  tolerance     =   0.000010000
  Maximum gradient  tolerance     =   0.001000000
  Maximum gradient  component     =   0.010000000

  Symmetry constrained optimisation

  Symmetry used for second derivatives

  Cell parameters to be optimised using strains

  Newton-Raphson optimiser to be used

  BFGS hessian update to be used

  Lower half triangular hessian to be used

  Start of bulk optimisation :

  ** Hessian calculated **

  **** Optimisation achieved ****

  Final energy =     -34.25274716 eV
  Final Gnorm  =       0.00056121

  Components of energy :

  Interatomic potentials     =           5.76377683 eV
  Monopole - monopole (real) =         -10.14897050 eV
  Monopole - monopole (recip)=         -29.86755349 eV
  Monopole - monopole (total)=         -40.01652399 eV
  Total lattice energy       =         -34.25274716 eV
  Total lattice energy       =           -3304.8665 kJ/(mole unit cells)

  Final asymmetric unit coordinates :

   No.  Atomic        x           y           z         Radius
        Label       (Frac)      (Frac)      (Frac)       (Angs)
     1  Cl    c     0.000000    0.000000    0.000000    0.000000
     2  O     c     0.500000    0.500000    0.500000    0.000000
     3  Na    c     0.500000    0.500000    0.000000    0.000000
     4  Cl    s     0.000000    0.000000    0.000000    0.000000
     5  O     s     0.500000    0.500000    0.500000    0.000000

  Final Cartesian lattice vectors (Angstroms) :

        4.453974    0.000000    0.000000
        0.000000    4.453974    0.000000
        0.000000    0.000000    4.453974

  Final cell parameters and derivatives :

       a            4.453974 Angstrom     dE/de1(xx)     0.000561 eV/strain
       b            4.453974 Angstrom     dE/de2(yy)     0.000000 eV/strain
       c            4.453974 Angstrom     dE/de3(zz)     0.000000 eV/strain
       alpha       90.000000 Degrees      dE/de4(yz)     0.000000 eV/strain
       beta        90.000000 Degrees      dE/de5(xz)     0.000000 eV/strain
       gamma       90.000000 Degrees      dE/de6(xy)     0.000000 eV/strain

  Primitive cell volume =            88.357409 Angs**3

  Density of cell =      2.263141 g/cm**3

  Non-primitive cell volume =            88.357409 Angs**3

  Final internal derivatives :

   No.  Atomic          a             b             c           Radius
        Label          (eV)          (eV)          (eV)        (eV/Angs)
      1 Cl    c       0.000000      0.000000      0.000000      0.000000
      2 O     c       0.000000      0.000000      0.000000      0.000000
      3 Na    c       0.000000      0.000000      0.000000      0.000000
      4 Cl    s       0.000000      0.000000      0.000000      0.000000
      5 O     s       0.000000      0.000000      0.000000      0.000000
  Maximum abs         0.000000      0.000000      0.000000      0.000000

  Comparison of initial and final structures :

  Parameter   Initial value   Final value   Difference    Units      Percent
    Volume        91.368216     88.357409    -3.010807    Angs**3     -3.30
    a              4.504000      4.453974    -0.050026    Angstroms   -1.11
    b              4.504000      4.453974    -0.050026    Angstroms   -1.11
    c              4.504000      4.453974    -0.050026    Angstroms   -1.11
    alpha         90.000000     90.000000     0.000000    Degrees      0.00
    beta          90.000000     90.000000     0.000000    Degrees      0.00
    gamma         90.000000     90.000000     0.000000    Degrees      0.00
      1 x          0.000000      0.000000     0.000000    Fractional   0.00
      1 y          0.000000      0.000000     0.000000    Fractional   0.00
      1 z          0.000000      0.000000     0.000000    Fractional   0.00
      2 x          0.500000      0.500000     0.000000    Fractional   0.00
      2 y          0.500000      0.500000     0.000000    Fractional   0.00
      2 z          0.500000      0.500000     0.000000    Fractional   0.00
      3 x          0.500000      0.500000     0.000000    Fractional   0.00
      3 y          0.500000      0.500000     0.000000    Fractional   0.00
      3 z          0.000000      0.000000     0.000000    Fractional   0.00
      4 x          0.000000      0.000000     0.000000    Fractional   0.00
      4 y          0.000000      0.000000     0.000000    Fractional   0.00
      4 z          0.000000      0.000000     0.000000    Fractional   0.00
      5 x          0.500000      0.500000     0.000000    Fractional   0.00
      5 y          0.500000      0.500000     0.000000    Fractional   0.00
      5 z          0.500000      0.500000     0.000000    Fractional   0.00

  Born effective charge tensors :

  Atom             x           y             z
    1 Cl    x      -1.4271      0.0000      0.0000
            y       0.0000     -1.4271      0.0000
            z       0.0000      0.0000     -1.4271
    2 O     x      -1.6137     -0.0000     -0.0000
            y      -0.0000     -1.6137     -0.0000
            z      -0.0000     -0.0000     -1.6137
    3 Na    x       0.8295     -0.0000     -0.0000
            y      -0.0000      0.8295      0.0000
            z      -0.0000      0.0000      1.3817

  Elastic Constant Matrix: (Units=GPa)

  Indices      1         2         3         4         5         6
       1     82.8226   21.5342   21.5342    0.0000   -0.0000   -0.0000
       2     21.5342   82.8226   21.5342   -0.0000    0.0000   -0.0000
       3     21.5342   21.5342   82.8226    0.0000    0.0000   -0.0000
       4      0.0000   -0.0000    0.0000   21.5346   -0.0000    0.0000
       5     -0.0000    0.0000    0.0000   -0.0000   21.5346    0.0000
       6     -0.0000   -0.0000   -0.0000    0.0000    0.0000   21.5346

  Elastic Compliance Matrix: (Units=1/GPa)

[...]
    11  O     c    -4.458285   -4.458285   -2.231083    1.443000
    12  O     c     0.000000    0.000000    6.650425    1.443000
    13  Cl    c     2.262383    6.712647    0.000000    0.996000
    14  Na    c     2.215453    0.000000    6.820886    1.000000
    15  Na    c     6.640990    0.000000   -2.542045    1.000000
    16  Na    c    -4.428892   -4.428892    4.457637    1.000000
    17  O     c     0.000000   -4.441613    6.649293    1.443000
    18  Cl    c     2.245849    6.724027    4.466756    0.996000
    19  Na    c     2.226860    4.434599    6.643791    1.000000
    20  Na    c     6.677814   -4.451438   -2.254474    1.000000
    21  Na    c     0.000000    0.000000    8.912759    1.000000
    22  Na    c     0.000000    8.740782    0.000000    1.000000
    23  O     c     0.000000    8.883378   -2.230905    1.443000
    24  O     c    -4.461987   -4.461987    6.691981    1.443000
    25  Cl    c     2.221020    2.221020    8.942220    0.996000
    26  Cl    c     6.705488    6.705488    0.000000    0.996000
    27  Na    c     2.223051    8.877000   -2.218624    1.000000
    28  Na    c     6.667213    0.000000    6.554193    1.000000
    29  Na    c     0.000000    4.510004    8.886657    1.000000
    30  Na    c     0.000000    8.986075    4.451685    1.000000
    31  Na    c     4.441922    8.876015    0.000000    1.000000
    32  O     s     0.000000    0.000000   -2.232566   -3.443000
    33  Cl    s     2.345351    2.345351    0.000000   -1.996000
    34  O     s     0.000000   -4.433582   -2.202319   -3.443000
    35  Cl    s     2.334549    2.334549    4.552551   -1.996000
    36  O     s    -4.461670   -4.461670   -2.231861   -3.443000
    37  O     s     0.000000    0.000000    6.707350   -3.443000
    38  Cl    s     2.256793    6.714180    0.000000   -1.996000
    39  O     s     0.000000   -4.426471    6.662354   -3.443000
    40  Cl    s     2.240467    6.736523    4.462273   -1.996000
    41  O     s     0.000000    8.886132   -2.252773   -3.443000
    42  O     s    -4.464290   -4.464290    6.692476   -3.443000
    43  Cl    s     2.214518    2.214518    8.941365   -1.996000
    44  Cl    s     6.710435    6.710435    0.000000   -1.996000

  Final derivatives for region 1 :

   No.  Atomic          x             y             z            Radius
        Label       (eV/Angs)     (eV/Angs)     (eV/Angs)       (eV/Angs)
     1  O     c       0.000000      0.000000      0.000305      0.000000
     2  Cl    c      -0.000267      0.000000      0.000000      0.000000
     3  Na    c      -0.001585      0.000000     -0.002240      0.000000
     4  Na    c       0.000000      0.000000      0.000252      0.000000
     5  Na    c       0.000000      0.000303      0.000000      0.000000
     6  O     c       0.000000      0.004386      0.002439      0.000000
     7  Cl    c      -0.000924      0.000000     -0.000893      0.000000
     8  Na    c       0.000028     -0.003347     -0.000203      0.000000
     9  Na    c       0.000000     -0.000539     -0.000347      0.000000
    10  Na    c       0.000332      0.000000      0.000000      0.000000
    11  O     c       0.004133      0.000000      0.000790      0.000000
    12  O     c       0.000000      0.000000     -0.001027      0.000000
    13  Cl    c      -0.001236     -0.000243      0.000000      0.000000
    14  Na    c      -0.000017      0.000000     -0.000397      0.000000
    15  Na    c      -0.000490      0.000000     -0.000843      0.000000
    16  Na    c      -0.000257      0.000000     -0.000177      0.000000
    17  O     c       0.000000     -0.000868      0.000642      0.000000
    18  Cl    c      -0.000980      0.000204      0.001219      0.000000
    19  Na    c       0.000104     -0.000340     -0.000534      0.000000
    20  Na    c      -0.001229     -0.001358     -0.000512      0.000000
    21  Na    c       0.000000      0.000000     -0.000103      0.000000
    22  Na    c       0.000000     -0.000086      0.000000      0.000000
    23  O     c       0.000000      0.002518      0.001799      0.000000
    24  O     c       0.000273      0.000000      0.000290      0.000000
    25  Cl    c       0.000820      0.000000      0.000220      0.000000
    26  Cl    c       0.000152      0.000000      0.000000      0.000000
    27  Na    c       0.000421      0.000205      0.000495      0.000000
    28  Na    c       0.000015      0.000000      0.000371      0.000000
    29  Na    c       0.000000     -0.000211      0.000237      0.000000
    30  Na    c       0.000000      0.000452     -0.000248      0.000000
    31  Na    c      -0.000096     -0.000094      0.000000      0.000000
    32  O     s       0.000000      0.000000     -0.000543      0.000000
    33  Cl    s       0.000217      0.000000      0.000000      0.000000
    34  O     s       0.000000     -0.003151     -0.000259      0.000000
    35  Cl    s       0.000234      0.000000     -0.000221      0.000000
    36  O     s      -0.002979      0.000000     -0.001636      0.000000
    37  O     s       0.000000      0.000000     -0.000377      0.000000
    38  Cl    s      -0.001360     -0.000033      0.000000      0.000000
    39  O     s       0.000000     -0.000329      0.001932      0.000000
    40  Cl    s       0.000081     -0.000985     -0.001166      0.000000
    41  O     s       0.000000      0.000506      0.002762      0.000000
    42  O     s      -0.000560      0.000000     -0.000043      0.000000
    43  Cl    s       0.000401      0.000000     -0.000008      0.000000
    44  Cl    s      -0.000218      0.000000      0.000000      0.000000

  Comparison of initial and final region 1 :

  Parameter   Initial value   Final value   Difference    Units      Percent
      1 x          2.226987      2.226987     0.000000    Cartesian    0.00
      1 y          2.226987      2.226987     0.000000    Cartesian    0.00
      1 z         -2.226987     -2.175150     0.051837    Cartesian   -2.33
      2 x          4.453974      4.576121     0.122147    Cartesian    2.74
      2 y          4.453974      4.576121     0.122147    Cartesian    2.74
      2 z          0.000000      0.000000     0.000000    Cartesian    0.00
      3 x          4.453974      4.380744    -0.073230    Cartesian   -1.64
      3 y          2.226987      2.226987     0.000000    Cartesian    0.00
      3 z         -2.226987     -1.791299     0.435688    Cartesian  -19.56
      4 x          2.226987      2.226987     0.000000    Cartesian    0.00
      4 y          2.226987      2.226987     0.000000    Cartesian    0.00
      4 z          4.453974      4.353864    -0.100110    Cartesian   -2.25
      5 x          2.226987      2.226987     0.000000    Cartesian    0.00
      5 y         -2.226987     -2.628728    -0.401741    Cartesian   18.04
      5 z          0.000000      0.000000     0.000000    Cartesian    0.00
      6 x          2.226987      2.226987     0.000000    Cartesian    0.00
      6 y         -2.226987     -2.183220     0.043767    Cartesian   -1.97
      6 z         -2.226987     -2.200894     0.026093    Cartesian   -1.17
      7 x          4.453974      4.535704     0.081730    Cartesian    1.83
      7 y          4.453974      4.535704     0.081730    Cartesian    1.83
      7 z          4.453974      4.528827     0.074854    Cartesian    1.68
      8 x          4.453974      4.451050    -0.002924    Cartesian   -0.07
      8 y         -2.226987     -2.202310     0.024676    Cartesian   -1.11
      8 z         -2.226987     -2.198248     0.028739    Cartesian   -1.29
      9 x          2.226987      2.226987     0.000000    Cartesian    0.00
      9 y         -2.226987     -1.865657     0.361330    Cartesian  -16.23
      9 z          4.453974      4.419388    -0.034585    Cartesian   -0.78
     10 x         -2.226987     -2.248952    -0.021965    Cartesian    0.99
     10 y         -2.226987     -2.248952    -0.021965    Cartesian    0.99
     10 z          0.000000      0.000000     0.000000    Cartesian    0.00
     11 x         -2.226987     -2.231298    -0.004311    Cartesian    0.19
     11 y         -2.226987     -2.231298    -0.004311    Cartesian    0.19
     11 z         -2.226987     -2.231083    -0.004096    Cartesian    0.18
     12 x          2.226987      2.226987     0.000000    Cartesian    0.00
     12 y          2.226987      2.226987     0.000000    Cartesian    0.00
     12 z          6.680961      6.650425    -0.030536    Cartesian   -0.46
     13 x          4.453974      4.489370     0.035396    Cartesian    0.79
     13 y          8.907948      8.939634     0.031686    Cartesian    0.36
     13 z          0.000000      0.000000     0.000000    Cartesian    0.00
     14 x          4.453974      4.442440    -0.011534    Cartesian   -0.26
     14 y          2.226987      2.226987     0.000000    Cartesian    0.00
     14 z          6.680961      6.820886     0.139926    Cartesian    2.09
     15 x          8.907948      8.867977    -0.039971    Cartesian   -0.45
     15 y          2.226987      2.226987     0.000000    Cartesian    0.00
     15 z         -2.226987     -2.542045    -0.315058    Cartesian   14.15
     16 x         -2.226987     -2.201905     0.025082    Cartesian   -1.13
     16 y         -2.226987     -2.201905     0.025082    Cartesian   -1.13
     16 z          4.453974      4.457637     0.003663    Cartesian    0.08
     17 x          2.226987      2.226987     0.000000    Cartesian    0.00
     17 y         -2.226987     -2.214626     0.012361    Cartesian   -0.56
     17 z          6.680961      6.649293    -0.031668    Cartesian   -0.47
     18 x          4.453974      4.472836     0.018862    Cartesian    0.42
     18 y          8.907948      8.951014     0.043067    Cartesian    0.48
     18 z          4.453974      4.466756     0.012782    Cartesian    0.29
     19 x          4.453974      4.453847    -0.000127    Cartesian   -0.00
     19 y          6.680961      6.661586    -0.019375    Cartesian   -0.29
     19 z          6.680961      6.643791    -0.037170    Cartesian   -0.56
     20 x          8.907948      8.904801    -0.003147    Cartesian   -0.04
     20 y         -2.226987     -2.224451     0.002536    Cartesian   -0.11
     20 z         -2.226987     -2.254474    -0.027487    Cartesian    1.23
     21 x          2.226987      2.226987     0.000000    Cartesian    0.00
     21 y          2.226987      2.226987     0.000000    Cartesian    0.00
     21 z          8.907948      8.912759     0.004811    Cartesian    0.05
     22 x          2.226987      2.226987     0.000000    Cartesian    0.00
     22 y         11.134934     10.967769    -0.167166    Cartesian   -1.50
     22 z          0.000000      0.000000     0.000000    Cartesian    0.00
     23 x          2.226987      2.226987     0.000000    Cartesian    0.00
     23 y         11.134934     11.110365    -0.024569    Cartesian   -0.22
     23 z         -2.226987     -2.230905    -0.003918    Cartesian    0.18
     24 x         -2.226987     -2.235000    -0.008013    Cartesian    0.36
     24 y         -2.226987     -2.235000    -0.008013    Cartesian    0.36
     24 z          6.680961      6.691981     0.011020    Cartesian    0.16
     25 x          4.453974      4.448007    -0.005967    Cartesian   -0.13
     25 y          4.453974      4.448007    -0.005967    Cartesian   -0.13
     25 z          8.907948      8.942220     0.034273    Cartesian    0.38
     26 x          8.907948      8.932475     0.024527    Cartesian    0.28
     26 y          8.907948      8.932475     0.024527    Cartesian    0.28
     26 z          0.000000      0.000000     0.000000    Cartesian    0.00
     27 x          4.453974      4.450038    -0.003935    Cartesian   -0.09
     27 y         11.134934     11.103987    -0.030948    Cartesian   -0.28
     27 z         -2.226987     -2.218624     0.008363    Cartesian   -0.38
     28 x          8.907948      8.894200    -0.013747    Cartesian   -0.15
     28 y          2.226987      2.226987     0.000000    Cartesian    0.00
     28 z          6.680961      6.554193    -0.126768    Cartesian   -1.90
     29 x          2.226987      2.226987     0.000000    Cartesian    0.00
     29 y          6.680961      6.736991     0.056030    Cartesian    0.84
     29 z          8.907948      8.886657    -0.021290    Cartesian   -0.24
     30 x          2.226987      2.226987     0.000000    Cartesian    0.00
     30 y         11.134934     11.213062     0.078127    Cartesian    0.70
     30 z          4.453974      4.451685    -0.002289    Cartesian   -0.05
     31 x          6.680961      6.668908    -0.012052    Cartesian   -0.18
     31 y         11.134934     11.103002    -0.031932    Cartesian   -0.29
     31 z          0.000000      0.000000     0.000000    Cartesian    0.00
     32 x          2.226987      2.226987     0.000000    Cartesian    0.00
     32 y          2.226987      2.226987     0.000000    Cartesian    0.00
     32 z         -2.226987     -2.232566    -0.005579    Cartesian    0.25
     33 x          4.453974      4.572338     0.118364    Cartesian    2.66
     33 y          4.453974      4.572338     0.118364    Cartesian    2.66
     33 z          0.000000      0.000000     0.000000    Cartesian    0.00
     34 x          2.226987      2.226987     0.000000    Cartesian    0.00
     34 y         -2.226987     -2.206595     0.020392    Cartesian   -0.92
     34 z         -2.226987     -2.202319     0.024668    Cartesian   -1.11
     35 x          4.453974      4.561536     0.107562    Cartesian    2.41
     35 y          4.453974      4.561536     0.107562    Cartesian    2.41
     35 z          4.453974      4.552551     0.098577    Cartesian    2.21
     36 x         -2.226987     -2.234683    -0.007696    Cartesian    0.35
     36 y         -2.226987     -2.234683    -0.007696    Cartesian    0.35
     36 z         -2.226987     -2.231861    -0.004874    Cartesian    0.22
     37 x          2.226987      2.226987     0.000000    Cartesian    0.00
     37 y          2.226987      2.226987     0.000000    Cartesian    0.00
     37 z          6.680961      6.707350     0.026390    Cartesian    0.39
     38 x          4.453974      4.483780     0.029806    Cartesian    0.67
     38 y          8.907948      8.941166     0.033219    Cartesian    0.37
     38 z          0.000000      0.000000     0.000000    Cartesian    0.00
     39 x          2.226987      2.226987     0.000000    Cartesian    0.00
     39 y         -2.226987     -2.199484     0.027503    Cartesian   -1.23
     39 z          6.680961      6.662354    -0.018607    Cartesian   -0.28
     40 x          4.453974      4.467454     0.013481    Cartesian    0.30
     40 y          8.907948      8.963510     0.055562    Cartesian    0.62
     40 z          4.453974      4.462273     0.008299    Cartesian    0.19
     41 x          2.226987      2.226987     0.000000    Cartesian    0.00
     41 y         11.134934     11.113118    -0.021816    Cartesian   -0.20
     41 z         -2.226987     -2.252773    -0.025786    Cartesian    1.16
     42 x         -2.226987     -2.237303    -0.010317    Cartesian    0.46
     42 y         -2.226987     -2.237303    -0.010317    Cartesian    0.46
     42 z          6.680961      6.692476     0.011515    Cartesian    0.17
     43 x          4.453974      4.441505    -0.012469    Cartesian   -0.28
     43 y          4.453974      4.441505    -0.012469    Cartesian   -0.28
     43 z          8.907948      8.941365     0.033417    Cartesian    0.38
     44 x          8.907948      8.937422     0.029474    Cartesian    0.33
     44 y          8.907948      8.937422     0.029474    Cartesian    0.33
     44 z          0.000000      0.000000     0.000000    Cartesian    0.00

  Time to end of optimisation  =       29.8542 seconds

  Timing analysis for GULP :

  Task / Subroutine                                          Time (Seconds)
  Calculation of reciprocal space energy and derivatives          0.0004
  Calculation of reciprocal space energy using symmetry           0.0005
  Calculation of real space energy and derivatives                0.0022
  Calculation of real space energy using symmetry                 0.0051
  Calculation for region 1 energy and derivatives (2-b)           6.5734
  Calculation for region 2a energy                               23.0115
  Calculation for region 2b energy                                0.0002
  Calculation and manipulation of Hessian matrix                  0.1530
  Calculation of matrix inversion                                 0.0064
  Symmetry generation of equivalent positions                     0.0026

  Dump file written as Na3OCl.grs

  Job Finished at 12:19.19  5th March      2021