  Job Started  at 12:18.47  5th March      2021

  Number of CPUs =     1

  Total number of configurations input =      1

*  Input for Configuration =   1                                               *

  Formula = ClONa3

  Number of irreducible atoms/shells =       5

  Total number atoms/shells =       7

  Dimensionality = 3               :  Bulk

  Symmetry :

  Crystal family                   :  Cubic
  Crystal class  (Groth - 1921)    :  Cubic Hexakisoctahedral

  Space group (centrosymmetric)    :  P M 3 M

  Patterson group                  :  P m -3 m

  Cartesian lattice vectors (Angstroms) :

        4.504000    0.000000    0.000000
        0.000000    4.504000    0.000000
        0.000000    0.000000    4.504000

  Cell parameters (Angstroms/Degrees):

  a =       4.5040    alpha =  90.0000
  b =       4.5040    beta  =  90.0000
  c =       4.5040    gamma =  90.0000

  Initial cell volume =          91.368216 Angs**3

  Temperature of configuration =   0.00     K

  Pressure of configuration =         0.000 GPa

  Fractional coordinates of asymmetric unit :

   No.  Atomic       x           y          z         Charge      Occupancy
        Label      (Frac)      (Frac)     (Frac)        (e)         (Frac)
      1 Cl    c    0.000000    0.000000    0.000000     0.99600    1.000000
      2 O     c    0.500000    0.500000    0.500000     1.44300    1.000000
      3 Na    c    0.500000    0.500000    0.000000     1.00000    1.000000
      4 Cl    s    0.000000    0.000000    0.000000    -1.99600    1.000000
      5 O     s    0.500000    0.500000    0.500000    -3.44300    1.000000

  Constraints :

  Constraint no.      Unconstrained     Constrained    Coefficient    Offset
                         Variable         Variable
           1              Strain 1        Strain 2       1.00000      0.0000
           2              Strain 1        Strain 3       1.00000      0.0000

*  General input information                                                   *

  Species output for all configurations :

  Species    Type    Atomic    Atomic    Charge       Radii (Angs)     Library
                     Number     Mass       (e)     Cova   Ionic  VDW   Symbol
    Na       Core       11      22.99   1.000000   0.970  0.000  2.300
    O        Core        8      16.00   1.443000   0.730  0.000  1.360
    O        Shell       8       0.00  -3.443000   0.730  0.000  1.360
    Cl       Core       17      35.45   0.996000   0.990  0.000  1.650
    Cl       Shell      17       0.00  -1.996000   0.990  0.000  1.650

  Lattice summation method               =    Ewald          (3-D)
                                         =    Parry          (2-D)
                                         =    Saunders et al (1-D)
  Accuracy factor for lattice sums       =   12.000

  Analytic derivatives to be used

  Time limit = Infinity

  Maximum range for interatomic potentials =    100000.000000 Angstroms

  General interatomic potentials :

Atom  Types   Potential      Parameter       Value         Units   Cutoffs(Ang)
  1     2                                                            Min /  Max
O    c O    s Spring (c-s)  Spring k 2       20.486200    eV*Ang^-2 0.000  0.800
                            Spring k 4       0.0000000    eV*Ang^-4
Cl   c Cl   s Spring (c-s)  Spring k 2       10.001500    eV*Ang^-2 0.000  0.800
                            Spring k 4       0.0000000    eV*Ang^-4
Na   c Na   c Buckingham    Buckingham A     29281.710    eV        0.000 12.000
                            Buckingham rho  0.37200000E-01Ang
                            Buckingham C     0.0000000    eV*Ang^6
Na   c O    s Buckingham    Buckingham A     602.40000    eV        0.000 12.000
                            Buckingham rho  0.34280000    Ang
                            Buckingham C     0.0000000    eV*Ang^6
Na   c Cl   s Buckingham    Buckingham A     3515.6900    eV        0.000 12.000
                            Buckingham rho  0.27460000    Ang
                            Buckingham C     0.0000000    eV*Ang^6
O    s O    s Buckingham    Buckingham A     25201.690    eV        0.000 12.000
                            Buckingham rho  0.16450000    Ang
                            Buckingham C     13.190000    eV*Ang^6
O    s Cl   s Buckingham    Buckingham A     1105.8600    eV        0.000 12.000
                            Buckingham rho  0.31330000    Ang
                            Buckingham C     62.200000    eV*Ang^6
Cl   s Cl   s Buckingham    Buckingham A     31408.750    eV        0.000 12.000
                            Buckingham rho  0.13660000    Ang
                            Buckingham C     14.530000    eV*Ang^6

*  Output for configuration   1                                                *

  Components of energy :

  Interatomic potentials     =           5.33200327 eV
  Monopole - monopole (real) =         -10.03624526 eV
  Monopole - monopole (recip)=         -29.53581274 eV
  Monopole - monopole (total)=         -39.57205800 eV
  Total lattice energy       =         -34.24005473 eV
  Total lattice energy       =           -3303.6419 kJ/(mole unit cells)

  Number of variables =        1

  Maximum number of calculations  =          1000
  Maximum Hessian update interval =            10
  Maximum step size               =   1.000000000
  Maximum parameter tolerance     =   0.000010000
  Maximum function  tolerance     =   0.000010000
  Maximum gradient  tolerance     =   0.001000000
  Maximum gradient  component     =   0.010000000

  Symmetry constrained optimisation

  Symmetry used for second derivatives

  Cell parameters to be optimised using strains

  Newton-Raphson optimiser to be used

  BFGS hessian update to be used

  Lower half triangular hessian to be used

  Start of bulk optimisation :

  ** Hessian calculated **

  **** Optimisation achieved ****

  Final energy =     -34.25274716 eV
  Final Gnorm  =       0.00056121

  Components of energy :

  Interatomic potentials     =           5.76377683 eV
  Monopole - monopole (real) =         -10.14897050 eV
  Monopole - monopole (recip)=         -29.86755349 eV
  Monopole - monopole (total)=         -40.01652399 eV
  Total lattice energy       =         -34.25274716 eV
  Total lattice energy       =           -3304.8665 kJ/(mole unit cells)

  Final asymmetric unit coordinates :

   No.  Atomic        x           y           z         Radius
        Label       (Frac)      (Frac)      (Frac)       (Angs)
     1  Cl    c     0.000000    0.000000    0.000000    0.000000
     2  O     c     0.500000    0.500000    0.500000    0.000000
     3  Na    c     0.500000    0.500000    0.000000    0.000000
     4  Cl    s     0.000000    0.000000    0.000000    0.000000
     5  O     s     0.500000    0.500000    0.500000    0.000000

  Final Cartesian lattice vectors (Angstroms) :

        4.453974    0.000000    0.000000
        0.000000    4.453974    0.000000
        0.000000    0.000000    4.453974

  Final cell parameters and derivatives :

       a            4.453974 Angstrom     dE/de1(xx)     0.000561 eV/strain
       b            4.453974 Angstrom     dE/de2(yy)     0.000000 eV/strain
       c            4.453974 Angstrom     dE/de3(zz)     0.000000 eV/strain
       alpha       90.000000 Degrees      dE/de4(yz)     0.000000 eV/strain
       beta        90.000000 Degrees      dE/de5(xz)     0.000000 eV/strain
       gamma       90.000000 Degrees      dE/de6(xy)     0.000000 eV/strain

  Primitive cell volume =            88.357409 Angs**3

  Density of cell =      2.263141 g/cm**3

  Non-primitive cell volume =            88.357409 Angs**3

  Final internal derivatives :

   No.  Atomic          a             b             c           Radius
        Label          (eV)          (eV)          (eV)        (eV/Angs)
      1 Cl    c       0.000000      0.000000      0.000000      0.000000
      2 O     c       0.000000      0.000000      0.000000      0.000000
      3 Na    c       0.000000      0.000000      0.000000      0.000000
      4 Cl    s       0.000000      0.000000      0.000000      0.000000
      5 O     s       0.000000      0.000000      0.000000      0.000000
  Maximum abs         0.000000      0.000000      0.000000      0.000000

  Comparison of initial and final structures :

  Parameter   Initial value   Final value   Difference    Units      Percent
    Volume        91.368216     88.357409    -3.010807    Angs**3     -3.30
    a              4.504000      4.453974    -0.050026    Angstroms   -1.11
    b              4.504000      4.453974    -0.050026    Angstroms   -1.11
    c              4.504000      4.453974    -0.050026    Angstroms   -1.11
    alpha         90.000000     90.000000     0.000000    Degrees      0.00
    beta          90.000000     90.000000     0.000000    Degrees      0.00
    gamma         90.000000     90.000000     0.000000    Degrees      0.00
      1 x          0.000000      0.000000     0.000000    Fractional   0.00
      1 y          0.000000      0.000000     0.000000    Fractional   0.00
      1 z          0.000000      0.000000     0.000000    Fractional   0.00
      2 x          0.500000      0.500000     0.000000    Fractional   0.00
      2 y          0.500000      0.500000     0.000000    Fractional   0.00
      2 z          0.500000      0.500000     0.000000    Fractional   0.00
      3 x          0.500000      0.500000     0.000000    Fractional   0.00
      3 y          0.500000      0.500000     0.000000    Fractional   0.00
      3 z          0.000000      0.000000     0.000000    Fractional   0.00
      4 x          0.000000      0.000000     0.000000    Fractional   0.00
      4 y          0.000000      0.000000     0.000000    Fractional   0.00
      4 z          0.000000      0.000000     0.000000    Fractional   0.00
      5 x          0.500000      0.500000     0.000000    Fractional   0.00
      5 y          0.500000      0.500000     0.000000    Fractional   0.00
      5 z          0.500000      0.500000     0.000000    Fractional   0.00

  Born effective charge tensors :

  Atom             x           y             z
    1 Cl    x      -1.4271      0.0000      0.0000
            y       0.0000     -1.4271      0.0000
            z       0.0000      0.0000     -1.4271
    2 O     x      -1.6137     -0.0000     -0.0000
            y      -0.0000     -1.6137     -0.0000
            z      -0.0000     -0.0000     -1.6137
    3 Na    x       0.8295     -0.0000     -0.0000
            y      -0.0000      0.8295      0.0000
            z      -0.0000      0.0000      1.3817

  Elastic Constant Matrix: (Units=GPa)

  Indices      1         2         3         4         5         6
       1     82.8226   21.5342   21.5342    0.0000   -0.0000   -0.0000
       2     21.5342   82.8226   21.5342   -0.0000    0.0000   -0.0000
       3     21.5342   21.5342   82.8226    0.0000    0.0000   -0.0000
       4      0.0000   -0.0000    0.0000   21.5346   -0.0000    0.0000
       5     -0.0000    0.0000    0.0000   -0.0000   21.5346    0.0000
       6     -0.0000   -0.0000   -0.0000    0.0000    0.0000   21.5346

  Elastic Compliance Matrix: (Units=1/GPa)

[...]
    63  O     s       0.000000     -0.001940      0.002367      0.000000
    64  Cl    s       0.000261      0.000606     -0.001242      0.000000
    65  Cl    s       0.000294     -0.001356      0.000000      0.000000
    66  O     s       0.000000      0.002281      0.001308      0.000000
    67  O     s      -0.000528     -0.001530      0.001837      0.000000

  Comparison of initial and final region 1 :

  Parameter   Initial value   Final value   Difference    Units      Percent
      1 x          2.226987      2.226987     0.000000    Cartesian    0.00
      1 y          2.226987      2.226987     0.000000    Cartesian    0.00
      1 z         -2.226987     -2.186270     0.040717    Cartesian   -1.83
      2 x          4.453974      4.578649     0.124676    Cartesian    2.80
      2 y          4.453974      4.578649     0.124676    Cartesian    2.80
      2 z          0.000000      0.000000     0.000000    Cartesian    0.00
      3 x          4.453974      4.379933    -0.074040    Cartesian   -1.66
      3 y          2.226987      2.226987     0.000000    Cartesian    0.00
      3 z         -2.226987     -1.786116     0.440870    Cartesian  -19.80
      4 x          2.226987      2.226987     0.000000    Cartesian    0.00
      4 y          2.226987      2.226987     0.000000    Cartesian    0.00
      4 z          4.453974      4.367963    -0.086011    Cartesian   -1.93
      5 x          2.226987      2.226987     0.000000    Cartesian    0.00
      5 y         -2.226987     -2.651070    -0.424084    Cartesian   19.04
      5 z          0.000000      0.000000     0.000000    Cartesian    0.00
      6 x          2.226987      2.226987     0.000000    Cartesian    0.00
      6 y         -2.226987     -2.186983     0.040004    Cartesian   -1.80
      6 z         -2.226987     -2.203217     0.023770    Cartesian   -1.07
      7 x          4.453974      4.517064     0.063090    Cartesian    1.42
      7 y          4.453974      4.517064     0.063090    Cartesian    1.42
      7 z          4.453974      4.539615     0.085641    Cartesian    1.92
      8 x          4.453974      4.454357     0.000384    Cartesian    0.01
      8 y         -2.226987     -2.214965     0.012022    Cartesian   -0.54
      8 z         -2.226987     -2.133091     0.093896    Cartesian   -4.22
      9 x          2.226987      2.226987     0.000000    Cartesian    0.00
      9 y         -2.226987     -1.801466     0.425521    Cartesian  -19.11
      9 z          4.453974      4.415505    -0.038468    Cartesian   -0.86
     10 x         -2.226987     -2.355676    -0.128690    Cartesian    5.78
     10 y         -2.226987     -2.355676    -0.128690    Cartesian    5.78
     10 z          0.000000      0.000000     0.000000    Cartesian    0.00
     11 x         -2.226987     -2.235022    -0.008035    Cartesian    0.36
     11 y         -2.226987     -2.235022    -0.008035    Cartesian    0.36
     11 z         -2.226987     -2.231623    -0.004636    Cartesian    0.21
     12 x          2.226987      2.226987     0.000000    Cartesian    0.00
     12 y          2.226987      2.226987     0.000000    Cartesian    0.00
     12 z          6.680961      6.659562    -0.021399    Cartesian   -0.32
     13 x          4.453974      4.503929     0.049955    Cartesian    1.12
     13 y          8.907948      8.924034     0.016086    Cartesian    0.18
     13 z          0.000000      0.000000     0.000000    Cartesian    0.00
     14 x          4.453974      4.446447    -0.007527    Cartesian   -0.17
     14 y          2.226987      2.226987     0.000000    Cartesian    0.00
     14 z          6.680961      6.868685     0.187725    Cartesian    2.81
     15 x          8.907948      8.860763    -0.047184    Cartesian   -0.53
     15 y          2.226987      2.226987     0.000000    Cartesian    0.00
     15 z         -2.226987     -2.623794    -0.396807    Cartesian   17.82
     16 x         -2.226987     -2.125070     0.101917    Cartesian   -4.58
     16 y         -2.226987     -2.125070     0.101917    Cartesian   -4.58
     16 z          4.453974      4.456666     0.002692    Cartesian    0.06
     17 x          2.226987      2.226987     0.000000    Cartesian    0.00
     17 y         -2.226987     -2.226468     0.000519    Cartesian   -0.02
     17 z          6.680961      6.641475    -0.039486    Cartesian   -0.59
     18 x          4.453974      4.496612     0.042638    Cartesian    0.96
     18 y          8.907948      8.951069     0.043121    Cartesian    0.48
     18 z          4.453974      4.474419     0.020445    Cartesian    0.46
     19 x          4.453974      4.450362    -0.003611    Cartesian   -0.08
     19 y          6.680961      6.653508    -0.027453    Cartesian   -0.41
     19 z          6.680961      6.674757    -0.006204    Cartesian   -0.09
     20 x          8.907948      8.907086    -0.000862    Cartesian   -0.01
     20 y         -2.226987     -2.229165    -0.002178    Cartesian    0.10
     20 z         -2.226987     -2.364179    -0.137192    Cartesian    6.16
     21 x          2.226987      2.226987     0.000000    Cartesian    0.00
     21 y          2.226987      2.226987     0.000000    Cartesian    0.00
     21 z          8.907948      8.916432     0.008484    Cartesian    0.10
     22 x          2.226987      2.226987     0.000000    Cartesian    0.00
     22 y         11.134934     10.798843    -0.336091    Cartesian   -3.02
     22 z          0.000000      0.000000     0.000000    Cartesian    0.00
     23 x          2.226987      2.226987     0.000000    Cartesian    0.00
     23 y         11.134934     11.088186    -0.046748    Cartesian   -0.42
     23 z         -2.226987     -2.220574     0.006413    Cartesian   -0.29
     24 x         -2.226987     -2.232364    -0.005377    Cartesian    0.24
     24 y         -2.226987     -2.232364    -0.005377    Cartesian    0.24
     24 z          6.680961      6.686003     0.005042    Cartesian    0.08
     25 x          4.453974      4.447816    -0.006158    Cartesian   -0.14
     25 y          4.453974      4.447816    -0.006158    Cartesian   -0.14
     25 z          8.907948      8.926413     0.018465    Cartesian    0.21
     26 x          8.907948      8.935614     0.027666    Cartesian    0.31
     26 y          8.907948      8.935614     0.027666    Cartesian    0.31
     26 z          0.000000      0.000000     0.000000    Cartesian    0.00
     27 x          4.453974      4.449712    -0.004261    Cartesian   -0.10
     27 y         11.134934     11.096969    -0.037965    Cartesian   -0.34
     27 z         -2.226987     -2.220051     0.006936    Cartesian   -0.31
     28 x          8.907948      8.899188    -0.008760    Cartesian   -0.10
     28 y          2.226987      2.226987     0.000000    Cartesian    0.00
     28 z          6.680961      6.439463    -0.241498    Cartesian   -3.61
     29 x          2.226987      2.226987     0.000000    Cartesian    0.00
     29 y          6.680961      6.838502     0.157542    Cartesian    2.36
     29 z          8.907948      8.880162    -0.027786    Cartesian   -0.31
     30 x          2.226987      2.226987     0.000000    Cartesian    0.00
     30 y         11.134934     11.370550     0.235615    Cartesian    2.12
     30 z          4.453974      4.437666    -0.016308    Cartesian   -0.37
     31 x          6.680961      6.713620     0.032659    Cartesian    0.49
     31 y         11.134934     11.037667    -0.097267    Cartesian   -0.87
     31 z          0.000000      0.000000     0.000000    Cartesian    0.00
     32 x          6.680961      6.678892    -0.002068    Cartesian   -0.03
     32 y         11.134934     11.136900     0.001965    Cartesian    0.02
     32 z         -2.226987     -2.226269     0.000718    Cartesian   -0.03
     33 x          8.907948      8.929489     0.021542    Cartesian    0.24
     33 y          8.907948      8.929489     0.021542    Cartesian    0.24
     33 z          4.453974      4.460705     0.006732    Cartesian    0.15
     34 x          8.907948      8.906509    -0.001439    Cartesian   -0.02
     34 y          6.680961      6.685378     0.004418    Cartesian    0.07
     34 z          6.680961      6.636820    -0.044141    Cartesian   -0.66
     35 x         -2.226987     -2.248972    -0.021985    Cartesian    0.99
     35 y         -2.226987     -2.248972    -0.021985    Cartesian    0.99
     35 z          8.907948      8.904260    -0.003688    Cartesian   -0.04
     36 x          6.680961      6.664167    -0.016793    Cartesian   -0.25
     36 y         11.134934     11.181972     0.047037    Cartesian    0.42
     36 z          4.453974      4.456047     0.002073    Cartesian    0.05
     37 x          2.226987      2.226987     0.000000    Cartesian    0.00
     37 y          2.226987      2.226987     0.000000    Cartesian    0.00
     37 z         11.134934     11.140209     0.005274    Cartesian    0.05
     38 x          2.226987      2.226987     0.000000    Cartesian    0.00
     38 y         11.134934     11.130910    -0.004025    Cartesian   -0.04
     38 z          6.680961      6.666551    -0.014409    Cartesian   -0.22
     39 x          4.453974      4.461508     0.007534    Cartesian    0.17
     39 y          8.907948      8.924540     0.016592    Cartesian    0.19
     39 z          8.907948      8.928453     0.020505    Cartesian    0.23
     40 x          4.453974      4.436399    -0.017575    Cartesian   -0.39
     40 y         13.361921     13.409087     0.047165    Cartesian    0.35
     40 z          0.000000      0.000000     0.000000    Cartesian    0.00
     41 x          4.453974      4.458592     0.004618    Cartesian    0.10
     41 y          2.226987      2.226987     0.000000    Cartesian    0.00
     41 z         11.134934     11.078247    -0.056687    Cartesian   -0.51
     42 x          4.453974      4.451564    -0.002410    Cartesian   -0.05
     42 y         11.134934     11.111822    -0.023112    Cartesian   -0.21
     42 z          6.680961      6.677474    -0.003487    Cartesian   -0.05
     43 x          8.907948      8.905932    -0.002016    Cartesian   -0.02
     43 y         11.134934     11.122976    -0.011959    Cartesian   -0.11
     43 z         -2.226987     -2.231556    -0.004569    Cartesian    0.21
     44 x         13.361921     13.337664    -0.024258    Cartesian   -0.18
     44 y          2.226987      2.226987     0.000000    Cartesian    0.00
     44 z         -2.226987     -2.054277     0.172710    Cartesian   -7.76
     45 x          2.226987      2.226987     0.000000    Cartesian    0.00
     45 y         -2.226987     -2.231205    -0.004218    Cartesian    0.19
     45 z         11.134934     11.123516    -0.011418    Cartesian   -0.10
     46 x          6.680961      6.683437     0.002476    Cartesian    0.04
     46 y         11.134934     11.139917     0.004982    Cartesian    0.04
     46 z          6.680961      6.684378     0.003417    Cartesian    0.05
     47 x          2.226987      2.226987     0.000000    Cartesian    0.00
     47 y          2.226987      2.226987     0.000000    Cartesian    0.00
     47 z         -2.226987     -2.237382    -0.010395    Cartesian    0.47
     48 x          4.453974      4.572165     0.118191    Cartesian    2.65
     48 y          4.453974      4.572165     0.118191    Cartesian    2.65
     48 z          0.000000      0.000000     0.000000    Cartesian    0.00
     49 x          2.226987      2.226987     0.000000    Cartesian    0.00
     49 y         -2.226987     -2.208452     0.018535    Cartesian   -0.83
     49 z         -2.226987     -2.200345     0.026642    Cartesian   -1.20
     50 x          4.453974      4.544379     0.090405    Cartesian    2.03
     50 y          4.453974      4.544379     0.090405    Cartesian    2.03
     50 z          4.453974      4.564178     0.110204    Cartesian    2.47
     51 x         -2.226987     -2.240132    -0.013145    Cartesian    0.59
     51 y         -2.226987     -2.240132    -0.013145    Cartesian    0.59
     51 z         -2.226987     -2.240111    -0.013124    Cartesian    0.59
     52 x          2.226987      2.226987     0.000000    Cartesian    0.00
     52 y          2.226987      2.226987     0.000000    Cartesian    0.00
     52 z          6.680961      6.725928     0.044968    Cartesian    0.67
     53 x          4.453974      4.486968     0.032995    Cartesian    0.74
     53 y          8.907948      8.923861     0.015913    Cartesian    0.18
     53 z          0.000000      0.000000     0.000000    Cartesian    0.00
     54 x          2.226987      2.226987     0.000000    Cartesian    0.00
     54 y         -2.226987     -2.215506     0.011480    Cartesian   -0.52
     54 z          6.680961      6.657060    -0.023901    Cartesian   -0.36
     55 x          4.453974      4.494094     0.040120    Cartesian    0.90
     55 y          8.907948      8.963194     0.055246    Cartesian    0.62
     55 z          4.453974      4.471037     0.017063    Cartesian    0.38
     56 x          2.226987      2.226987     0.000000    Cartesian    0.00
     56 y         11.134934     11.093814    -0.041121    Cartesian   -0.37
     56 z         -2.226987     -2.235966    -0.008979    Cartesian    0.40
     57 x         -2.226987     -2.230961    -0.003974    Cartesian    0.18
     57 y         -2.226987     -2.230961    -0.003974    Cartesian    0.18
     57 z          6.680961      6.685146     0.004186    Cartesian    0.06
     58 x          4.453974      4.436960    -0.017014    Cartesian   -0.38
     58 y          4.453974      4.436960    -0.017014    Cartesian   -0.38
     58 z          8.907948      8.919988     0.012041    Cartesian    0.14
     59 x          8.907948      8.938255     0.030308    Cartesian    0.34
     59 y          8.907948      8.938255     0.030308    Cartesian    0.34
     59 z          0.000000      0.000000     0.000000    Cartesian    0.00
     60 x          6.680961      6.681726     0.000766    Cartesian    0.01
     60 y         11.134934     11.133869    -0.001065    Cartesian   -0.01
     60 z         -2.226987     -2.234763    -0.007776    Cartesian    0.35
     61 x          8.907948      8.931936     0.023988    Cartesian    0.27
     61 y          8.907948      8.931936     0.023988    Cartesian    0.27
     61 z          4.453974      4.455723     0.001749    Cartesian    0.04
     62 x          2.226987      2.226987     0.000000    Cartesian    0.00
     62 y          2.226987      2.226987     0.000000    Cartesian    0.00
     62 z         11.134934     11.124642    -0.010292    Cartesian   -0.09
     63 x          2.226987      2.226987     0.000000    Cartesian    0.00
     63 y         11.134934     11.149500     0.014566    Cartesian    0.13
     63 z          6.680961      6.655499    -0.025462    Cartesian   -0.38
     64 x          4.453974      4.461187     0.007213    Cartesian    0.16
     64 y          8.907948      8.924541     0.016594    Cartesian    0.19
     64 z          8.907948      8.938248     0.030301    Cartesian    0.34
     65 x          4.453974      4.422419    -0.031555    Cartesian   -0.71
     65 y         13.361921     13.427514     0.065593    Cartesian    0.49
     65 z          0.000000      0.000000     0.000000    Cartesian    0.00
     66 x          2.226987      2.226987     0.000000    Cartesian    0.00
     66 y         -2.226987     -2.241935    -0.014948    Cartesian    0.67
     66 z         11.134934     11.127304    -0.007630    Cartesian   -0.07
     67 x          6.680961      6.685238     0.004277    Cartesian    0.06
     67 y         11.134934     11.145396     0.010461    Cartesian    0.09
     67 z          6.680961      6.682631     0.001670    Cartesian    0.02

  Time to end of optimisation  =       36.4454 seconds

  Timing analysis for GULP :

  Task / Subroutine                                          Time (Seconds)
  Calculation of reciprocal space energy and derivatives          0.0004
  Calculation of reciprocal space energy using symmetry           0.0005
  Calculation of real space energy and derivatives                0.0021
  Calculation of real space energy using symmetry                 0.0048
  Calculation for region 1 energy and derivatives (2-b)          12.9139
  Calculation for region 2a energy                               23.0116
  Calculation for region 2b energy                                0.0014
  Calculation and manipulation of Hessian matrix                  0.2573
  Calculation of matrix inversion                                 0.0137
  Symmetry generation of equivalent positions                     0.0025

  Dump file written as Na3OCl.grs

  Job Finished at 12:19.26  5th March      2021