  Job Started  at 12:18.47  5th March      2021

  Number of CPUs =     1

  Total number of configurations input =      1

*  Input for Configuration =   1                                               *

  Formula = ClONa3

  Number of irreducible atoms/shells =       5

  Total number atoms/shells =       7

  Dimensionality = 3               :  Bulk

  Symmetry :

  Crystal family                   :  Cubic
  Crystal class  (Groth - 1921)    :  Cubic Hexakisoctahedral

  Space group (centrosymmetric)    :  P M 3 M

  Patterson group                  :  P m -3 m

  Cartesian lattice vectors (Angstroms) :

        4.504000    0.000000    0.000000
        0.000000    4.504000    0.000000
        0.000000    0.000000    4.504000

  Cell parameters (Angstroms/Degrees):

  a =       4.5040    alpha =  90.0000
  b =       4.5040    beta  =  90.0000
  c =       4.5040    gamma =  90.0000

  Initial cell volume =          91.368216 Angs**3

  Temperature of configuration =   0.00     K

  Pressure of configuration =         0.000 GPa

  Fractional coordinates of asymmetric unit :

   No.  Atomic       x           y          z         Charge      Occupancy
        Label      (Frac)      (Frac)     (Frac)        (e)         (Frac)
      1 Cl    c    0.000000    0.000000    0.000000     0.99600    1.000000
      2 O     c    0.500000    0.500000    0.500000     1.44300    1.000000
      3 Na    c    0.500000    0.500000    0.000000     1.00000    1.000000
      4 Cl    s    0.000000    0.000000    0.000000    -1.99600    1.000000
      5 O     s    0.500000    0.500000    0.500000    -3.44300    1.000000

  Constraints :

  Constraint no.      Unconstrained     Constrained    Coefficient    Offset
                         Variable         Variable
           1              Strain 1        Strain 2       1.00000      0.0000
           2              Strain 1        Strain 3       1.00000      0.0000

*  General input information                                                   *

  Species output for all configurations :

  Species    Type    Atomic    Atomic    Charge       Radii (Angs)     Library
                     Number     Mass       (e)     Cova   Ionic  VDW   Symbol
    Na       Core       11      22.99   1.000000   0.970  0.000  2.300
    O        Core        8      16.00   1.443000   0.730  0.000  1.360
    O        Shell       8       0.00  -3.443000   0.730  0.000  1.360
    Cl       Core       17      35.45   0.996000   0.990  0.000  1.650
    Cl       Shell      17       0.00  -1.996000   0.990  0.000  1.650

  Lattice summation method               =    Ewald          (3-D)
                                         =    Parry          (2-D)
                                         =    Saunders et al (1-D)
  Accuracy factor for lattice sums       =   12.000

  Analytic derivatives to be used

  Time limit = Infinity

  Maximum range for interatomic potentials =    100000.000000 Angstroms

  General interatomic potentials :

Atom  Types   Potential      Parameter       Value         Units   Cutoffs(Ang)
  1     2                                                            Min /  Max
O    c O    s Spring (c-s)  Spring k 2       20.486200    eV*Ang^-2 0.000  0.800
                            Spring k 4       0.0000000    eV*Ang^-4
Cl   c Cl   s Spring (c-s)  Spring k 2       10.001500    eV*Ang^-2 0.000  0.800
                            Spring k 4       0.0000000    eV*Ang^-4
Na   c Na   c Buckingham    Buckingham A     29281.710    eV        0.000 12.000
                            Buckingham rho  0.37200000E-01Ang
                            Buckingham C     0.0000000    eV*Ang^6
Na   c O    s Buckingham    Buckingham A     602.40000    eV        0.000 12.000
                            Buckingham rho  0.34280000    Ang
                            Buckingham C     0.0000000    eV*Ang^6
Na   c Cl   s Buckingham    Buckingham A     3515.6900    eV        0.000 12.000
                            Buckingham rho  0.27460000    Ang
                            Buckingham C     0.0000000    eV*Ang^6
O    s O    s Buckingham    Buckingham A     25201.690    eV        0.000 12.000
                            Buckingham rho  0.16450000    Ang
                            Buckingham C     13.190000    eV*Ang^6
O    s Cl   s Buckingham    Buckingham A     1105.8600    eV        0.000 12.000
                            Buckingham rho  0.31330000    Ang
                            Buckingham C     62.200000    eV*Ang^6
Cl   s Cl   s Buckingham    Buckingham A     31408.750    eV        0.000 12.000
                            Buckingham rho  0.13660000    Ang
                            Buckingham C     14.530000    eV*Ang^6

*  Output for configuration   1                                                *

  Components of energy :

  Interatomic potentials     =           5.33200327 eV
  Monopole - monopole (real) =         -10.03624526 eV
  Monopole - monopole (recip)=         -29.53581274 eV
  Monopole - monopole (total)=         -39.57205800 eV
  Total lattice energy       =         -34.24005473 eV
  Total lattice energy       =           -3303.6419 kJ/(mole unit cells)

  Number of variables =        1

  Maximum number of calculations  =          1000
  Maximum Hessian update interval =            10
  Maximum step size               =   1.000000000
  Maximum parameter tolerance     =   0.000010000
  Maximum function  tolerance     =   0.000010000
  Maximum gradient  tolerance     =   0.001000000
  Maximum gradient  component     =   0.010000000

  Symmetry constrained optimisation

  Symmetry used for second derivatives

  Cell parameters to be optimised using strains

  Newton-Raphson optimiser to be used

  BFGS hessian update to be used

  Lower half triangular hessian to be used

  Start of bulk optimisation :

  ** Hessian calculated **

  **** Optimisation achieved ****

  Final energy =     -34.25274716 eV
  Final Gnorm  =       0.00056121

  Components of energy :

  Interatomic potentials     =           5.76377683 eV
  Monopole - monopole (real) =         -10.14897050 eV
  Monopole - monopole (recip)=         -29.86755349 eV
  Monopole - monopole (total)=         -40.01652399 eV
  Total lattice energy       =         -34.25274716 eV
  Total lattice energy       =           -3304.8665 kJ/(mole unit cells)

  Final asymmetric unit coordinates :

   No.  Atomic        x           y           z         Radius
        Label       (Frac)      (Frac)      (Frac)       (Angs)
     1  Cl    c     0.000000    0.000000    0.000000    0.000000
     2  O     c     0.500000    0.500000    0.500000    0.000000
     3  Na    c     0.500000    0.500000    0.000000    0.000000
     4  Cl    s     0.000000    0.000000    0.000000    0.000000
     5  O     s     0.500000    0.500000    0.500000    0.000000

  Final Cartesian lattice vectors (Angstroms) :

        4.453974    0.000000    0.000000
        0.000000    4.453974    0.000000
        0.000000    0.000000    4.453974

  Final cell parameters and derivatives :

       a            4.453974 Angstrom     dE/de1(xx)     0.000561 eV/strain
       b            4.453974 Angstrom     dE/de2(yy)     0.000000 eV/strain
       c            4.453974 Angstrom     dE/de3(zz)     0.000000 eV/strain
       alpha       90.000000 Degrees      dE/de4(yz)     0.000000 eV/strain
       beta        90.000000 Degrees      dE/de5(xz)     0.000000 eV/strain
       gamma       90.000000 Degrees      dE/de6(xy)     0.000000 eV/strain

  Primitive cell volume =            88.357409 Angs**3

  Density of cell =      2.263141 g/cm**3

  Non-primitive cell volume =            88.357409 Angs**3

  Final internal derivatives :

   No.  Atomic          a             b             c           Radius
        Label          (eV)          (eV)          (eV)        (eV/Angs)
      1 Cl    c       0.000000      0.000000      0.000000      0.000000
      2 O     c       0.000000      0.000000      0.000000      0.000000
      3 Na    c       0.000000      0.000000      0.000000      0.000000
      4 Cl    s       0.000000      0.000000      0.000000      0.000000
      5 O     s       0.000000      0.000000      0.000000      0.000000
  Maximum abs         0.000000      0.000000      0.000000      0.000000

  Comparison of initial and final structures :

  Parameter   Initial value   Final value   Difference    Units      Percent
    Volume        91.368216     88.357409    -3.010807    Angs**3     -3.30
    a              4.504000      4.453974    -0.050026    Angstroms   -1.11
    b              4.504000      4.453974    -0.050026    Angstroms   -1.11
    c              4.504000      4.453974    -0.050026    Angstroms   -1.11
    alpha         90.000000     90.000000     0.000000    Degrees      0.00
    beta          90.000000     90.000000     0.000000    Degrees      0.00
    gamma         90.000000     90.000000     0.000000    Degrees      0.00
      1 x          0.000000      0.000000     0.000000    Fractional   0.00
      1 y          0.000000      0.000000     0.000000    Fractional   0.00
      1 z          0.000000      0.000000     0.000000    Fractional   0.00
      2 x          0.500000      0.500000     0.000000    Fractional   0.00
      2 y          0.500000      0.500000     0.000000    Fractional   0.00
      2 z          0.500000      0.500000     0.000000    Fractional   0.00
      3 x          0.500000      0.500000     0.000000    Fractional   0.00
      3 y          0.500000      0.500000     0.000000    Fractional   0.00
      3 z          0.000000      0.000000     0.000000    Fractional   0.00
      4 x          0.000000      0.000000     0.000000    Fractional   0.00
      4 y          0.000000      0.000000     0.000000    Fractional   0.00
      4 z          0.000000      0.000000     0.000000    Fractional   0.00
      5 x          0.500000      0.500000     0.000000    Fractional   0.00
      5 y          0.500000      0.500000     0.000000    Fractional   0.00
      5 z          0.500000      0.500000     0.000000    Fractional   0.00

  Born effective charge tensors :

  Atom             x           y             z
    1 Cl    x      -1.4271      0.0000      0.0000
            y       0.0000     -1.4271      0.0000
            z       0.0000      0.0000     -1.4271
    2 O     x      -1.6137     -0.0000     -0.0000
            y      -0.0000     -1.6137     -0.0000
            z      -0.0000     -0.0000     -1.6137
    3 Na    x       0.8295     -0.0000     -0.0000
            y      -0.0000      0.8295      0.0000
            z      -0.0000      0.0000      1.3817

  Elastic Constant Matrix: (Units=GPa)

  Indices      1         2         3         4         5         6
       1     82.8226   21.5342   21.5342    0.0000   -0.0000   -0.0000
       2     21.5342   82.8226   21.5342   -0.0000    0.0000   -0.0000
       3     21.5342   21.5342   82.8226    0.0000    0.0000   -0.0000
       4      0.0000   -0.0000    0.0000   21.5346   -0.0000    0.0000
       5     -0.0000    0.0000    0.0000   -0.0000   21.5346    0.0000
       6     -0.0000   -0.0000   -0.0000    0.0000    0.0000   21.5346

  Elastic Compliance Matrix: (Units=1/GPa)

[...]
    142 z         -2.226987     -2.224278     0.002709    Cartesian   -0.12
    143 x          8.907948      8.911002     0.003054    Cartesian    0.03
    143 y         13.361921     13.367347     0.005426    Cartesian    0.04
    143 z         13.361921     13.370675     0.008754    Cartesian    0.07
    144 x          8.907948      8.907274    -0.000674    Cartesian   -0.01
    144 y         15.588908     15.580082    -0.008826    Cartesian   -0.06
    144 z         11.134934     11.130942    -0.003993    Cartesian   -0.04
    145 x         13.361921     13.360556    -0.001365    Cartesian   -0.01
    145 y         15.588908     15.581319    -0.007590    Cartesian   -0.05
    145 z          6.680961      6.681335     0.000374    Cartesian    0.01
    146 x          6.680961      6.656849    -0.024112    Cartesian   -0.36
    146 y         -2.226987     -2.202875     0.024112    Cartesian   -1.08
    146 z         17.815895     17.813665    -0.002230    Cartesian   -0.01
    147 x          2.226987      2.226987     0.000000    Cartesian    0.00
    147 y         15.588908     15.567230    -0.021679    Cartesian   -0.14
    147 z         13.361921     13.356677    -0.005245    Cartesian   -0.04
    148 x          6.680961      6.682733     0.001772    Cartesian    0.03
    148 y         20.042882     19.982802    -0.060080    Cartesian   -0.30
    148 z          4.453974      4.451737    -0.002236    Cartesian   -0.05
    149 x         15.588908     15.576212    -0.012696    Cartesian   -0.08
    149 y         15.588908     15.576212    -0.012696    Cartesian   -0.08
    149 z          0.000000      0.000000     0.000000    Cartesian    0.00
    150 x          2.226987      2.226987     0.000000    Cartesian    0.00
    150 y          2.226987      2.226987     0.000000    Cartesian    0.00
    150 z         -2.226987     -2.352368    -0.125381    Cartesian    5.63
    151 x          4.453974      4.683566     0.229592    Cartesian    5.15
    151 y          4.453974      4.683566     0.229592    Cartesian    5.15
    151 z          0.000000      0.000000     0.000000    Cartesian    0.00
    152 x          2.226987      2.226987     0.000000    Cartesian    0.00
    152 y         -2.226987     -2.197820     0.029167    Cartesian   -1.31
    152 z         -2.226987     -2.199679     0.027308    Cartesian   -1.23
    153 x          4.453974      4.488222     0.034249    Cartesian    0.77
    153 y          4.453974      4.488222     0.034249    Cartesian    0.77
    153 z          4.453974      4.530362     0.076388    Cartesian    1.72
    154 x         -2.226987     -2.252238    -0.025252    Cartesian    1.13
    154 y         -2.226987     -2.252238    -0.025252    Cartesian    1.13
    154 z         -2.226987     -2.252278    -0.025291    Cartesian    1.14
    155 x          2.226987      2.226987     0.000000    Cartesian    0.00
    155 y          2.226987      2.226987     0.000000    Cartesian    0.00
    155 z          6.680961      6.657776    -0.023185    Cartesian   -0.35
    156 x          4.453974      4.437364    -0.016610    Cartesian   -0.37
    156 y          8.907948      8.946106     0.038158    Cartesian    0.43
    156 z          0.000000      0.000000     0.000000    Cartesian    0.00
    157 x          2.226987      2.226987     0.000000    Cartesian    0.00
    157 y         -2.226987     -2.234446    -0.007459    Cartesian    0.33
    157 z          6.680961      6.683381     0.002420    Cartesian    0.04
    158 x          4.453974      4.476161     0.022188    Cartesian    0.50
    158 y          8.907948      8.939440     0.031493    Cartesian    0.35
    158 z          4.453974      4.473892     0.019918    Cartesian    0.45
    159 x          2.226987      2.226987     0.000000    Cartesian    0.00
    159 y         11.134934     11.119431    -0.015504    Cartesian   -0.14
    159 z         -2.226987     -2.211019     0.015968    Cartesian   -0.72
    160 x         -2.226987     -2.225279     0.001708    Cartesian   -0.08
    160 y         -2.226987     -2.225279     0.001708    Cartesian   -0.08
    160 z          6.680961      6.681620     0.000659    Cartesian    0.01
    161 x          4.453974      4.477568     0.023595    Cartesian    0.53
    161 y          4.453974      4.477568     0.023595    Cartesian    0.53
    161 z          8.907948      8.934819     0.026872    Cartesian    0.30
    162 x          8.907948      8.957398     0.049451    Cartesian    0.56
    162 y          8.907948      8.957398     0.049451    Cartesian    0.56
    162 z          0.000000      0.000000     0.000000    Cartesian    0.00
    163 x          6.680961      6.679913    -0.001047    Cartesian   -0.02
    163 y         11.134934     11.131269    -0.003666    Cartesian   -0.03
    163 z         -2.226987     -2.241258    -0.014271    Cartesian    0.64
    164 x          8.907948      8.934277     0.026329    Cartesian    0.30
    164 y          8.907948      8.934277     0.026329    Cartesian    0.30
    164 z          4.453974      4.475006     0.021032    Cartesian    0.47
    165 x          2.226987      2.226987     0.000000    Cartesian    0.00
    165 y          2.226987      2.226987     0.000000    Cartesian    0.00
    165 z         11.134934     11.125840    -0.009094    Cartesian   -0.08
    166 x          2.226987      2.226987     0.000000    Cartesian    0.00
    166 y         11.134934     11.126058    -0.008877    Cartesian   -0.08
    166 z          6.680961      6.692352     0.011391    Cartesian    0.17
    167 x          4.453974      4.438629    -0.015345    Cartesian   -0.34
    167 y          8.907948      8.915654     0.007707    Cartesian    0.09
    167 z          8.907948      8.923978     0.016030    Cartesian    0.18
    168 x          4.453974      4.439412    -0.014562    Cartesian   -0.33
    168 y         13.361921     13.375013     0.013091    Cartesian    0.10
    168 z          0.000000      0.000000     0.000000    Cartesian    0.00
    169 x          2.226987      2.226987     0.000000    Cartesian    0.00
    169 y         -2.226987     -2.219500     0.007487    Cartesian   -0.34
    169 z         11.134934     11.135932     0.000997    Cartesian    0.01
    170 x          6.680961      6.683953     0.002992    Cartesian    0.04
    170 y         11.134934     11.143786     0.008851    Cartesian    0.08
    170 z          6.680961      6.674830    -0.006131    Cartesian   -0.09
    171 x          4.453974      4.477908     0.023935    Cartesian    0.54
    171 y         13.361921     13.371331     0.009409    Cartesian    0.07
    171 z          4.453974      4.454153     0.000179    Cartesian    0.00
    172 x          6.680961      6.689397     0.008436    Cartesian    0.13
    172 y          6.680961      6.689397     0.008436    Cartesian    0.13
    172 z         11.134934     11.128133    -0.006802    Cartesian   -0.06
    173 x         11.134934     11.143985     0.009051    Cartesian    0.08
    173 y         11.134934     11.143985     0.009051    Cartesian    0.08
    173 z         -2.226987     -2.228701    -0.001714    Cartesian    0.08
    174 x          8.907948      8.924791     0.016844    Cartesian    0.19
    174 y          8.907948      8.924791     0.016844    Cartesian    0.19
    174 z          8.907948      8.937519     0.029572    Cartesian    0.33
    175 x          8.907948      8.930979     0.023032    Cartesian    0.26
    175 y         13.361921     13.387631     0.025710    Cartesian    0.19
    175 z          0.000000      0.000000     0.000000    Cartesian    0.00
    176 x          2.226987      2.226987     0.000000    Cartesian    0.00
    176 y         15.588908     15.590898     0.001989    Cartesian    0.01
    176 z         -2.226987     -2.237434    -0.010447    Cartesian    0.47
    177 x          8.907948      8.903449    -0.004498    Cartesian   -0.05
    177 y         13.361921     13.363968     0.002046    Cartesian    0.02
    177 z          4.453974      4.459349     0.005376    Cartesian    0.12
    178 x          4.453974      4.443969    -0.010004    Cartesian   -0.22
    178 y          4.453974      4.443969    -0.010004    Cartesian   -0.22
    178 z         13.361921     13.371604     0.009682    Cartesian    0.07
    179 x          2.226987      2.226987     0.000000    Cartesian    0.00
    179 y         11.134934     11.136219     0.001284    Cartesian    0.01
    179 z         11.134934     11.131184    -0.003750    Cartesian   -0.03
    180 x         11.134934     11.134898    -0.000036    Cartesian   -0.00
    180 y         11.134934     11.134898    -0.000036    Cartesian   -0.00
    180 z          6.680961      6.682523     0.001562    Cartesian    0.02
    181 x         15.588908     15.584337    -0.004571    Cartesian   -0.03
    181 y         -2.226987     -2.225545     0.001442    Cartesian   -0.06
    181 z         -2.226987     -2.216773     0.010214    Cartesian   -0.46
    182 x          4.453974      4.445296    -0.008677    Cartesian   -0.19
    182 y         13.361921     13.369827     0.007905    Cartesian    0.06
    182 z          8.907948      8.910609     0.002662    Cartesian    0.03
    183 x          6.680961      6.680667    -0.000293    Cartesian   -0.00
    183 y         11.134934     11.136180     0.001245    Cartesian    0.01
    183 z         11.134934     11.138086     0.003152    Cartesian    0.03
    184 x          2.226987      2.226987     0.000000    Cartesian    0.00
    184 y         15.588908     15.579312    -0.009596    Cartesian   -0.06
    184 z          6.680961      6.678433    -0.002528    Cartesian   -0.04
    185 x          4.453974      4.463130     0.009156    Cartesian    0.21
    185 y          8.907948      8.915635     0.007688    Cartesian    0.09
    185 z         13.361921     13.373272     0.011350    Cartesian    0.08
    186 x          2.226987      2.226987     0.000000    Cartesian    0.00
    186 y          2.226987      2.226987     0.000000    Cartesian    0.00
    186 z         15.588908     15.594333     0.005425    Cartesian    0.03
    187 x         15.588908     15.596933     0.008025    Cartesian    0.05
    187 y         -2.226987     -2.226562     0.000425    Cartesian   -0.02
    187 z          6.680961      6.680546    -0.000414    Cartesian   -0.01
    188 x          4.453974      4.474356     0.020382    Cartesian    0.46
    188 y        -13.361921    -13.367540    -0.005618    Cartesian    0.04
    188 z          0.000000      0.000000     0.000000    Cartesian    0.00
    189 x          8.907948      8.912968     0.005020    Cartesian    0.06
    189 y         13.361921     13.373211     0.011290    Cartesian    0.08
    189 z          8.907948      8.913717     0.005769    Cartesian    0.06
    190 x         13.361921     13.369292     0.007371    Cartesian    0.06
    190 y         13.361921     13.369292     0.007371    Cartesian    0.06
    190 z          0.000000      0.000000     0.000000    Cartesian    0.00
    191 x          2.226987      2.226987     0.000000    Cartesian    0.00
    191 y          6.680961      6.680214    -0.000746    Cartesian   -0.01
    191 z         15.588908     15.580551    -0.008357    Cartesian   -0.05
    192 x         11.134934     11.134692    -0.000242    Cartesian   -0.00
    192 y         15.588908     15.586082    -0.002827    Cartesian   -0.02
    192 z         -2.226987     -2.228640    -0.001653    Cartesian    0.07
    193 x          4.453974      4.437380    -0.016594    Cartesian   -0.37
    193 y        -13.361921    -13.371348    -0.009427    Cartesian    0.07
    193 z          4.453974      4.463022     0.009048    Cartesian    0.20
    194 x          8.907948      8.910455     0.002508    Cartesian    0.03
    194 y          8.907948      8.910455     0.002508    Cartesian    0.03
    194 z         13.361921     13.365411     0.003490    Cartesian    0.03
    195 x         13.361921     13.369792     0.007870    Cartesian    0.06
    195 y         13.361921     13.369792     0.007870    Cartesian    0.06
    195 z          4.453974      4.452577    -0.001397    Cartesian   -0.03
    196 x          6.680961      6.680902    -0.000059    Cartesian   -0.00
    196 y         -2.226987     -2.226928     0.000059    Cartesian   -0.00
    196 z         15.588908     15.588647    -0.000261    Cartesian   -0.00
    197 x         11.134934     11.135241     0.000306    Cartesian    0.00
    197 y         11.134934     11.135241     0.000306    Cartesian    0.00
    197 z         11.134934     11.137876     0.002941    Cartesian    0.03
    198 x          8.907948      8.907502    -0.000446    Cartesian   -0.01
    198 y        -13.361921    -13.386848    -0.024927    Cartesian    0.19
    198 z          0.000000      0.000000     0.000000    Cartesian    0.00
    199 x          2.226987      2.226987     0.000000    Cartesian    0.00
    199 y         15.588908     15.595850     0.006941    Cartesian    0.04
    199 z         11.134934     11.124512    -0.010422    Cartesian   -0.09
    200 x         11.134934     11.134634    -0.000300    Cartesian   -0.00
    200 y         15.588908     15.589249     0.000341    Cartesian    0.00
    200 z          6.680961      6.681865     0.000905    Cartesian    0.01
    201 x          4.453974      4.456811     0.002837    Cartesian    0.06
    201 y         13.361921     13.368097     0.006175    Cartesian    0.05
    201 z         13.361921     13.372065     0.010143    Cartesian    0.08
    202 x          8.907948      8.918388     0.010441    Cartesian    0.12
    202 y        -13.361921    -13.365876    -0.003955    Cartesian    0.03
    202 z          4.453974      4.461209     0.007235    Cartesian    0.16
    203 x          2.226987      2.226987     0.000000    Cartesian    0.00
    203 y         11.134934     11.140017     0.005083    Cartesian    0.05
    203 z         15.588908     15.586960    -0.001948    Cartesian   -0.01
    204 x          2.226987      2.226987     0.000000    Cartesian    0.00
    204 y         20.042882     20.034645    -0.008237    Cartesian   -0.04
    204 z         -2.226987     -2.241094    -0.014107    Cartesian    0.63
    205 x         15.588908     15.583526    -0.005383    Cartesian   -0.03
    205 y         -2.226987     -2.227041    -0.000054    Cartesian    0.00
    205 z         11.134934     11.139980     0.005046    Cartesian    0.05
    206 x          4.453974      4.470343     0.016369    Cartesian    0.37
    206 y        -13.361921    -13.371892    -0.009971    Cartesian    0.07
    206 z          8.907948      8.918232     0.010284    Cartesian    0.12
    207 x          4.453974      4.459540     0.005566    Cartesian    0.12
    207 y          4.453974      4.459540     0.005566    Cartesian    0.12
    207 z         17.815895     17.829995     0.014099    Cartesian    0.08
    208 x         13.361921     13.371214     0.009293    Cartesian    0.07
    208 y         13.361921     13.371214     0.009293    Cartesian    0.07
    208 z          8.907948      8.911309     0.003362    Cartesian    0.04
    209 x          6.680961      6.681623     0.000663    Cartesian    0.01
    209 y         11.134934     11.132232    -0.002702    Cartesian   -0.02
    209 z         15.588908     15.595019     0.006110    Cartesian    0.04
    210 x          6.680961      6.684623     0.003663    Cartesian    0.05
    210 y         20.042882     20.043370     0.000488    Cartesian    0.00
    210 z         -2.226987     -2.213755     0.013231    Cartesian   -0.59
    211 x          8.907948      8.911328     0.003381    Cartesian    0.04
    211 y         13.361921     13.369786     0.007865    Cartesian    0.06
    211 z         13.361921     13.371120     0.009199    Cartesian    0.07

  Time to end of optimisation  =       66.6910 seconds

  Timing analysis for GULP :

  Task / Subroutine                                          Time (Seconds)
  Calculation of reciprocal space energy and derivatives          0.0004
  Calculation of reciprocal space energy using symmetry           0.0005
  Calculation of real space energy and derivatives                0.0021
  Calculation of real space energy using symmetry                 0.0051
  Calculation for region 1 energy and derivatives (2-b)          45.9348
  Calculation for region 2a energy                               12.7794
  Calculation for region 2b energy                                0.0003
  Calculation and manipulation of Hessian matrix                  5.2421
  Calculation of matrix inversion                                 0.3281
  Symmetry generation of equivalent positions                     0.0043

  Dump file written as Na3OCl.grs

  Job Finished at 12:19.56  5th March      2021