  Job Started  at 13:04.00 27th January    2021

  Number of CPUs =     1

  Total number of configurations input =      1

*  Input for Configuration =   1                                               *

  Formula = SrCl2

  Number of irreducible atoms/shells =       4

  Total number atoms/shells =       6

  Dimensionality = 3               :  Bulk

  Symmetry :

  Crystal family                   :  Cubic
  Crystal class  (Groth - 1921)    :  Cubic Hexakisoctahedral

  Space group (centrosymmetric)    :  F M 3 M

  Patterson group                  :  F m -3 m

  Cartesian lattice vectors (Angstroms) :

        0.000000    3.523613    3.523613
        3.523613    0.000000    3.523613
        3.523613    3.523613    0.000000

  Primitive cell parameters :            Full cell parameters :

  a =   4.9831    alpha =  60.0000       a =   7.0472    alpha =  90.0000
  b =   4.9831    beta  =  60.0000       b =   7.0472    beta  =  90.0000
  c =   4.9831    gamma =  60.0000       c =   7.0472    gamma =  90.0000

  Initial volumes (Angstroms**3):

  Primitive cell =          87.497291    Full cell =         349.989164

  Temperature of configuration =   0.00     K

  Pressure of configuration =         0.000 GPa

  Fractional coordinates of asymmetric unit :

   No.  Atomic       x           y          z         Charge      Occupancy
        Label      (Frac)      (Frac)     (Frac)        (e)         (Frac)
      1 Sr    c    0.000000    0.000000    0.000000    -1.25100    1.000000
      2 Cl    c    0.250000    0.250000    0.250000     1.48500    1.000000
      3 Sr    s    0.000000    0.000000    0.000000     3.25100    1.000000
      4 Cl    s    0.250000    0.250000    0.250000    -2.48500    1.000000

  Constraints :

  Constraint no.      Unconstrained     Constrained    Coefficient    Offset
                         Variable         Variable
           1              Strain 1        Strain 2       1.00000      0.0000
           2              Strain 1        Strain 3       1.00000      0.0000

*  General input information                                                   *

  Species output for all configurations :

  Species    Type    Atomic    Atomic    Charge       Radii (Angs)     Library
                     Number     Mass       (e)     Cova   Ionic  VDW   Symbol
    Na       Core       11      22.99   1.000000   0.970  0.000  0.000
    O        Core        8      16.00   0.183000   0.730  0.000  0.000
    O        Shell       8       0.00  -2.183000   0.730  0.000  0.000
    Cl       Core       17      35.45   1.485000   0.990  0.000  1.650
    Cl       Shell      17       0.00  -2.485000   0.990  0.000  1.650
    Mg       Core       12      24.31   0.415000   1.100  0.000  0.000
    Mg       Shell      12       0.00   1.585000   1.100  0.000  0.000
    Ca       Core       20      40.08  -1.135000   0.990  0.000  0.000
    Ca       Shell      20       0.00   3.135000   0.990  0.000  0.000
    Sr       Core       38      87.62  -1.251000   1.120  0.000  1.670
    Sr       Shell      38       0.00   3.251000   1.120  0.000  1.670
    Ba       Core       56     137.33  -7.203000   1.340  0.000  0.000
    Ba       Shell      56       0.00   9.203000   1.340  0.000  0.000

  Lattice summation method               =    Ewald          (3-D)
                                         =    Parry          (2-D)
                                         =    Saunders et al (1-D)
  Accuracy factor for lattice sums       =   12.000

  Analytic derivatives to be used

  Time limit = Infinity

  Maximum range for interatomic potentials =    100000.000000 Angstroms

  General interatomic potentials :

Atom  Types   Potential      Parameter       Value         Units   Cutoffs(Ang)
  1     2                                                            Min /  Max
O    c O    s Spring (c-s)  Spring k 2       593.71600    eV*Ang^-2 0.000  0.800
                            Spring k 4       0.0000000    eV*Ang^-4
Cl   c Cl   s Spring (c-s)  Spring k 2       29.380000    eV*Ang^-2 0.000  0.800
                            Spring k 4       0.0000000    eV*Ang^-4
Mg   c Mg   s Spring (c-s)  Spring k 2       361.60000    eV*Ang^-2 0.000  0.800
                            Spring k 4       0.0000000    eV*Ang^-4
Ca   c Ca   s Spring (c-s)  Spring k 2       110.20000    eV*Ang^-2 0.000  0.800
                            Spring k 4       0.0000000    eV*Ang^-4
Sr   c Sr   s Spring (c-s)  Spring k 2       71.700000    eV*Ang^-2 0.000  0.800
                            Spring k 4       0.0000000    eV*Ang^-4
Ba   c Ba   s Spring (c-s)  Spring k 2       495.20000    eV*Ang^-2 0.000  0.800
                            Spring k 4       0.0000000    eV*Ang^-4
Na   c Na   c Buckingham    Buckingham A     1788.1900    eV        0.000 12.000
                            Buckingham rho  0.15900000    Ang
                            Buckingham C     0.0000000    eV*Ang^6
Na   c O    s Buckingham    Buckingham A     588.38000    eV        0.000 12.000
                            Buckingham rho  0.33800000    Ang
                            Buckingham C     0.0000000    eV*Ang^6
Na   c Cl   s Buckingham    Buckingham A     1170.4100    eV        0.000 12.000
                            Buckingham rho  0.31500000    Ang
                            Buckingham C     0.0000000    eV*Ang^6
O    s O    s Buckingham    Buckingham A     22764.300    eV        0.000 12.000
                            Buckingham rho  0.14900000    Ang
                            Buckingham C     13.190000    eV*Ang^6
O    s Cl   s Buckingham    Buckingham A     8286.9100    eV        0.000 12.000
                            Buckingham rho  0.25900000    Ang
                            Buckingham C     62.200000    eV*Ang^6
Cl   s Cl   s Buckingham    Buckingham A     1227.2000    eV        0.000 12.000
                            Buckingham rho  0.32100000    Ang
                            Buckingham C     14.530000    eV*Ang^6
O    s Mg   s Buckingham    Buckingham A     1428.5000    eV        0.000 12.000
                            Buckingham rho  0.29450000    Ang
                            Buckingham C     0.0000000    eV*Ang^6
Mg   s Cl   s Buckingham    Buckingham A     4914.5400    eV        0.000 12.000
                            Buckingham rho  0.25700000    Ang
                            Buckingham C     0.0000000    eV*Ang^6
O    s Ca   s Buckingham    Buckingham A     1090.4000    eV        0.000 12.000
                            Buckingham rho  0.34370000    Ang
                            Buckingham C     0.0000000    eV*Ang^6
Cl   s Ca   s Buckingham    Buckingham A     2302.0000    eV        0.000 12.000
                            Buckingham rho  0.34020000    Ang
                            Buckingham C     0.0000000    eV*Ang^6
O    s Sr   s Buckingham    Buckingham A     959.10000    eV        0.000 12.000
                            Buckingham rho  0.37210000    Ang
                            Buckingham C     0.0000000    eV*Ang^6
Cl   s Sr   s Buckingham    Buckingham A     2191.0900    eV        0.000 12.000
                            Buckingham rho  0.34570000    Ang
                            Buckingham C     0.0000000    eV*Ang^6
O    s Ba   s Buckingham    Buckingham A     905.70000    eV        0.000 12.000
                            Buckingham rho  0.39760000    Ang
                            Buckingham C     0.0000000    eV*Ang^6
Cl   s Ba   s Buckingham    Buckingham A     2704.5500    eV        0.000 12.000
                            Buckingham rho  0.35280000    Ang
                            Buckingham C     0.0000000    eV*Ang^6

*  Output for configuration   1                                                *

  Components of energy :

  Interatomic potentials     =           2.63941189 eV
  Monopole - monopole (real) =          -2.82015744 eV
  Monopole - monopole (recip)=         -20.95712342 eV
  Monopole - monopole (total)=         -23.77728086 eV
  Total lattice energy :
    Primitive unit cell      =         -21.13786897 eV
    Non-primitive unit cell  =         -84.55147589 eV
  Total lattice energy (in kJmol-1):
    Primitive unit cell      =           -2039.4812 kJ/(mole unit cells)
    Non-primitive unit cell  =           -8157.9249 kJ/(mole unit cells)

  Number of variables =        1

  Maximum number of calculations  =          1000
  Maximum Hessian update interval =            10
  Maximum step size               =   1.000000000
  Maximum parameter tolerance     =   0.000010000
  Maximum function  tolerance     =   0.000010000
  Maximum gradient  tolerance     =   0.001000000
  Maximum gradient  component     =   0.010000000

  Symmetry constrained optimisation

  Symmetry used for second derivatives

  Cell parameters to be optimised using strains

  Newton-Raphson optimiser to be used

  BFGS hessian update to be used

  Lower half triangular hessian to be used

  Start of bulk optimisation :

  ** Hessian calculated **

  **** Optimisation achieved ****

  Final energy =     -21.13786916 eV
  Final Gnorm  =       0.00000105

  Components of energy :

  Interatomic potentials     =           2.63829574 eV
  Monopole - monopole (real) =          -2.82002508 eV
  Monopole - monopole (recip)=         -20.95613982 eV
  Monopole - monopole (total)=         -23.77616490 eV
  Total lattice energy :
    Primitive unit cell      =         -21.13786916 eV
    Non-primitive unit cell  =         -84.55147663 eV
  Total lattice energy (in kJmol-1):
    Primitive unit cell      =           -2039.4813 kJ/(mole unit cells)
    Non-primitive unit cell  =           -8157.9250 kJ/(mole unit cells)

  Final asymmetric unit coordinates :

   No.  Atomic        x           y           z         Radius
        Label       (Frac)      (Frac)      (Frac)       (Angs)
     1  Sr    c     0.000000    0.000000    0.000000    0.000000
     2  Cl    c     0.250000    0.250000    0.250000    0.000000
     3  Sr    s     0.000000    0.000000    0.000000    0.000000
     4  Cl    s     0.250000    0.250000    0.250000    0.000000

  Final Cartesian lattice vectors (Angstroms) :

        0.000000    3.523778    3.523778
        3.523778    0.000000    3.523778
        3.523778    3.523778    0.000000

  Final cell parameters and derivatives :

       a            4.983375 Angstrom     dE/de1(xx)    -0.000001 eV/strain
       b            4.983375 Angstrom     dE/de2(yy)     0.000000 eV/strain
       c            4.983375 Angstrom     dE/de3(zz)     0.000000 eV/strain
       alpha       60.000000 Degrees      dE/de4(yz)     0.000000 eV/strain
       beta        60.000000 Degrees      dE/de5(xz)     0.000000 eV/strain
       gamma       60.000000 Degrees      dE/de6(xy)     0.000000 eV/strain

  Primitive cell volume =            87.509612 Angs**3

  Density of cell =      3.008045 g/cm**3

  Non-primitive lattice parameters :

  a    =     7.047557  b   =     7.047557  c    =     7.047557
  alpha=    90.000000  beta=    90.000000  gamma=    90.000000

  Non-primitive cell volume =           350.038447 Angs**3

  Final internal derivatives :

   No.  Atomic          a             b             c           Radius
        Label          (eV)          (eV)          (eV)        (eV/Angs)
      1 Sr    c       0.000000      0.000000      0.000000      0.000000
      2 Cl    c       0.000000      0.000000      0.000000      0.000000
      3 Sr    s       0.000000      0.000000      0.000000      0.000000
      4 Cl    s       0.000000      0.000000      0.000000      0.000000
  Maximum abs         0.000000      0.000000      0.000000      0.000000

  Comparison of initial and final structures :

  Parameter   Initial value   Final value   Difference    Units      Percent
    Volume       349.989164    350.038447     0.049284    Angs**3      0.01
    a              7.047226      7.047557     0.000331    Angstroms    0.00
    b              7.047226      7.047557     0.000331    Angstroms    0.00
    c              7.047226      7.047557     0.000331    Angstroms    0.00
    alpha         90.000000     90.000000     0.000000    Degrees      0.00
    beta          90.000000     90.000000     0.000000    Degrees      0.00
    gamma         90.000000     90.000000     0.000000    Degrees      0.00
      1 x          0.000000      0.000000     0.000000    Fractional   0.00
      1 y          0.000000      0.000000     0.000000    Fractional   0.00
      1 z          0.000000      0.000000     0.000000    Fractional   0.00
      2 x          0.250000      0.250000     0.000000    Fractional   0.00
      2 y          0.250000      0.250000     0.000000    Fractional   0.00
      2 z          0.250000      0.250000     0.000000    Fractional   0.00
      3 x          0.000000      0.000000     0.000000    Fractional   0.00
      3 y          0.000000      0.000000     0.000000    Fractional   0.00
      3 z          0.000000      0.000000     0.000000    Fractional   0.00
      4 x          0.250000      0.250000     0.000000    Fractional   0.00
      4 y          0.250000      0.250000     0.000000    Fractional   0.00
      4 z          0.250000      0.250000     0.000000    Fractional   0.00

  Born effective charge tensors :

  Atom             x           y             z
    1 Sr    x       2.0860     -0.0000     -0.0000
            y      -0.0000      2.0860      0.0000
            z      -0.0000      0.0000      2.0860
    2 Cl    x      -1.0430      0.0000     -0.0000
            y       0.0000     -1.0430      0.0000
            z      -0.0000      0.0000     -1.0430

  Elastic Constant Matrix: (Units=GPa)

  Indices      1         2         3         4         5         6
       1     62.6926   19.4945   19.4945    0.0000   -0.0000    0.0000
       2     19.4945   62.6926   19.4945   -0.0000    0.0000    0.0000
       3     19.4945   19.4945   62.6926   -0.0000   -0.0000   -0.0000
       4      0.0000   -0.0000   -0.0000    8.5953   -0.0000    0.0000
       5     -0.0000    0.0000   -0.0000   -0.0000    8.5953   -0.0000
       6      0.0000    0.0000   -0.0000    0.0000   -0.0000    8.5953

  Elastic Compliance Matrix: (Units=1/GPa)

  Indices      1         2         3         4         5         6
       1    0.018711 -0.004438 -0.004438 -0.000000 -0.000000 -0.000000
       2   -0.004438  0.018711 -0.004438  0.000000 -0.000000 -0.000000
       3   -0.004438 -0.004438  0.018711  0.000000  0.000000  0.000000
       4   -0.000000  0.000000  0.000000  0.116343  0.000000 -0.000000
       5   -0.000000 -0.000000  0.000000  0.000000  0.116343  0.000000
       6   -0.000000 -0.000000  0.000000 -0.000000  0.000000  0.116343

  Mechanical properties :

  Convention :                    Reuss         Voigt         Hill
  Bulk  Modulus (GPa)     =      33.89387      33.89387      33.89387
  Shear Modulus (GPa)     =      11.32179      13.79677      12.55928
  Velocity S-wave (km/s)  =       1.94006       2.14164       2.04334
  Velocity P-wave (km/s)  =       4.03562       4.16932       4.10301
  Compressibility (1/GPa) =    0.02950386
  Stress axis :                     x             y             z
  Youngs Moduli (GPa)     =      53.44452      53.44452      53.44452
  Poissons Ratio (x)      =                     0.23720       0.23720
  Poissons Ratio (y)      =       0.23720                     0.23720
  Poissons Ratio (z)      =       0.23720       0.23720

  Piezoelectric Strain Matrix: (Units=C/m**2)

  Indices      1         2         3         4         5         6
       x     0.00000   0.00000   0.00000   0.00000  -0.00000  -0.00000
       y    -0.00000   0.00000  -0.00000   0.00000   0.00000   0.00000
       z    -0.00000  -0.00000   0.00000   0.00000   0.00000   0.00000

  Piezoelectric Stress Matrix: (Units=10**-11 C/N)

  Indices      1         2         3         4         5         6
       x     0.00000   0.00000  -0.00000   0.00000  -0.00000  -0.00000
       y    -0.00000   0.00000  -0.00000   0.00000   0.00000   0.00000
       z    -0.00000  -0.00000   0.00000   0.00000   0.00000   0.00000

  Static dielectric constant tensor :

              x         y         z
       x     5.79631  -0.00000  -0.00000
       y    -0.00000   5.79631   0.00000
       z    -0.00000   0.00000   5.79631

  High frequency dielectric constant tensor :

              x         y         z
       x     2.51969  -0.00000  -0.00000
       y    -0.00000   2.51969  -0.00000
       z    -0.00000  -0.00000   2.51969

  Static refractive indices :

    1 =    2.40755      2 =    2.40755      3 =    2.40755

  High frequency refractive indices :

    1 =    1.58735      2 =    1.58735      3 =    1.58735

  Time to end of optimisation =       0.0112 seconds

*  Defect calculation for configuration   1 :                                  *

  **** No defects for configuration number    1 ****

  Timing analysis for GULP :

  Task / Subroutine                                          Time (Seconds)
  Calculation of reciprocal space energy and derivatives          0.0002
  Calculation of reciprocal space energy using symmetry           0.0002
  Calculation of real space energy and derivatives                0.0018
  Calculation of real space energy using symmetry                 0.0040
  Symmetry generation of equivalent positions                     0.0017

  Dump file written as Na3OCl.grs

  Job Finished at 13:04.00 27th January    2021