  Job Started  at 16:31.44  5th July       2021

  Number of CPUs =     1

  Total number of configurations input =      1

*  Input for Configuration =   1                                               *

  Formula = ClONa3

  Number of irreducible atoms/shells =       5

  Total number atoms/shells =       7

  Dimensionality = 3               :  Bulk

  Symmetry :

  Crystal family                   :  Cubic
  Crystal class  (Groth - 1921)    :  Cubic Hexakisoctahedral

  Space group (centrosymmetric)    :  P M 3 M

  Patterson group                  :  P m -3 m

  Cartesian lattice vectors (Angstroms) :

        4.504000    0.000000    0.000000
        0.000000    4.504000    0.000000
        0.000000    0.000000    4.504000

  Cell parameters (Angstroms/Degrees):

  a =       4.5040    alpha =  90.0000
  b =       4.5040    beta  =  90.0000
  c =       4.5040    gamma =  90.0000

  Initial cell volume =          91.368216 Angs**3

  Temperature of configuration =   0.00     K

  Pressure of configuration =         0.000 GPa

  Fractional coordinates of asymmetric unit :

   No.  Atomic       x           y          z         Charge      Occupancy
        Label      (Frac)      (Frac)     (Frac)        (e)         (Frac)
      1 Cl    c    0.000000    0.000000    0.000000     0.61500    1.000000
      2 O     c    0.500000    0.500000    0.500000     0.48900    1.000000
      3 Na    c    0.500000    0.500000    0.000000     0.67000    1.000000
      4 Cl    s    0.000000    0.000000    0.000000    -1.28500    1.000000
      5 O     s    0.500000    0.500000    0.500000    -1.82900    1.000000

  Constraints :

  Constraint no.      Unconstrained     Constrained    Coefficient    Offset
                         Variable         Variable
           1              Strain 1        Strain 2       1.00000      0.0000
           2              Strain 1        Strain 3       1.00000      0.0000

*  General input information                                                   *

  Species output for all configurations :

  Species    Type    Atomic    Atomic    Charge       Radii (Angs)     Library
                     Number     Mass       (e)     Cova   Ionic  VDW   Symbol
    Na       Core       11      22.99   0.670000   0.970  0.000  2.300
    O        Core        8      16.00   0.489000   0.730  0.000  1.360
    O        Shell       8       0.00  -1.829000   0.730  0.000  1.360
    Cl       Core       17      35.45   0.615000   0.990  0.000  1.650
    Cl       Shell      17       0.00  -1.285000   0.990  0.000  1.650

  Lattice summation method               =    Ewald          (3-D)
                                         =    Parry          (2-D)
                                         =    Saunders et al (1-D)
  Accuracy factor for lattice sums       =   12.000

  Analytic derivatives to be used

  Time limit = Infinity

  Maximum range for interatomic potentials =    100000.000000 Angstroms

  General interatomic potentials :

Atom  Types   Potential      Parameter       Value         Units   Cutoffs(Ang)
  1     2                                                            Min /  Max
O    c O    s Spring (c-s)  Spring k 2       34.450000    eV*Ang^-2 0.000  0.800
                            Spring k 4       0.0000000    eV*Ang^-4
Cl   c Cl   s Spring (c-s)  Spring k 2       28.250000    eV*Ang^-2 0.000  0.800
                            Spring k 4       0.0000000    eV*Ang^-4
Na   c Na   c Buckingham    Buckingham A     996.28210    eV        0.000 12.000
                            Buckingham rho  0.28830000    Ang
                            Buckingham C     0.0000000    eV*Ang^6
Na   c O    s Buckingham    Buckingham A     12439.222    eV        0.000 12.000
                            Buckingham rho  0.20150000    Ang
                            Buckingham C     0.0000000    eV*Ang^6
Na   c Cl   s Buckingham    Buckingham A     20907.738    eV        0.000 12.000
                            Buckingham rho  0.21660000    Ang
                            Buckingham C     0.0000000    eV*Ang^6
O    s O    s Buckingham    Buckingham A     35546.853    eV        0.000 12.000
                            Buckingham rho  0.12056000    Ang
                            Buckingham C     13.190000    eV*Ang^6
O    s Cl   s Buckingham    Buckingham A     47777.071    eV        0.000 12.000
                            Buckingham rho  0.24370000    Ang
                            Buckingham C     62.200000    eV*Ang^6
Cl   s Cl   s Buckingham    Buckingham A     35155.254    eV        0.000 12.000
                            Buckingham rho  0.21360000    Ang
                            Buckingham C     14.530000    eV*Ang^6

*  Output for configuration   1                                                *

  Components of energy :

  Interatomic potentials     =           1.21745275 eV
  Monopole - monopole (real) =          -4.50527050 eV
  Monopole - monopole (recip)=         -13.25862634 eV
  Monopole - monopole (total)=         -17.76389683 eV
  Total lattice energy       =         -16.54644409 eV
  Total lattice energy       =           -1596.4789 kJ/(mole unit cells)

  Number of variables =        1

  Maximum number of calculations  =          1000
  Maximum Hessian update interval =            10
  Maximum step size               =   1.000000000
  Maximum parameter tolerance     =   0.000010000
  Maximum function  tolerance     =   0.000010000
  Maximum gradient  tolerance     =   0.001000000
  Maximum gradient  component     =   0.010000000

  Symmetry constrained optimisation

  Symmetry used for second derivatives

  Cell parameters to be optimised using strains

  Newton-Raphson optimiser to be used

  BFGS hessian update to be used

  Lower half triangular hessian to be used

  Start of bulk optimisation :

  ** Hessian calculated **

  **** Optimisation achieved ****

  Final energy =     -16.57035847 eV
  Final Gnorm  =       0.00000012

  Components of energy :

  Interatomic potentials     =           1.49654868 eV
  Monopole - monopole (real) =          -4.58211982 eV
  Monopole - monopole (recip)=         -13.48478733 eV
  Monopole - monopole (total)=         -18.06690714 eV
  Total lattice energy       =         -16.57035847 eV
  Total lattice energy       =           -1598.7863 kJ/(mole unit cells)

  Final asymmetric unit coordinates :

   No.  Atomic        x           y           z         Radius
        Label       (Frac)      (Frac)      (Frac)       (Angs)
     1  Cl    c     0.000000    0.000000    0.000000    0.000000
     2  O     c     0.500000    0.500000    0.500000    0.000000
     3  Na    c     0.500000    0.500000    0.000000    0.000000
     4  Cl    s     0.000000    0.000000    0.000000    0.000000
     5  O     s     0.500000    0.500000    0.500000    0.000000

  Final Cartesian lattice vectors (Angstroms) :

        4.428461    0.000000    0.000000
        0.000000    4.428461    0.000000
        0.000000    0.000000    4.428461

  Final cell parameters and derivatives :

       a            4.428461 Angstrom     dE/de1(xx)     0.000000 eV/strain
       b            4.428461 Angstrom     dE/de2(yy)     0.000000 eV/strain
       c            4.428461 Angstrom     dE/de3(zz)     0.000000 eV/strain
       alpha       90.000000 Degrees      dE/de4(yz)     0.000000 eV/strain
       beta        90.000000 Degrees      dE/de5(xz)     0.000000 eV/strain
       gamma       90.000000 Degrees      dE/de6(xy)     0.000000 eV/strain

  Primitive cell volume =            86.847723 Angs**3

  Density of cell =      2.302482 g/cm**3

  Non-primitive cell volume =            86.847723 Angs**3

  Final internal derivatives :

   No.  Atomic          a             b             c           Radius
        Label          (eV)          (eV)          (eV)        (eV/Angs)
      1 Cl    c       0.000000      0.000000      0.000000      0.000000
      2 O     c       0.000000      0.000000      0.000000      0.000000
      3 Na    c       0.000000      0.000000      0.000000      0.000000
      4 Cl    s       0.000000      0.000000      0.000000      0.000000
      5 O     s       0.000000      0.000000      0.000000      0.000000
  Maximum abs         0.000000      0.000000      0.000000      0.000000

  Comparison of initial and final structures :

  Parameter   Initial value   Final value   Difference    Units      Percent
    Volume        91.368216     86.847723    -4.520493    Angs**3     -4.95
    a              4.504000      4.428461    -0.075539    Angstroms   -1.68
    b              4.504000      4.428461    -0.075539    Angstroms   -1.68
    c              4.504000      4.428461    -0.075539    Angstroms   -1.68
    alpha         90.000000     90.000000     0.000000    Degrees      0.00
    beta          90.000000     90.000000     0.000000    Degrees      0.00
    gamma         90.000000     90.000000     0.000000    Degrees      0.00
      1 x          0.000000      0.000000     0.000000    Fractional   0.00
      1 y          0.000000      0.000000     0.000000    Fractional   0.00
      1 z          0.000000      0.000000     0.000000    Fractional   0.00
      2 x          0.500000      0.500000     0.000000    Fractional   0.00
      2 y          0.500000      0.500000     0.000000    Fractional   0.00
      2 z          0.500000      0.500000     0.000000    Fractional   0.00
      3 x          0.500000      0.500000     0.000000    Fractional   0.00
      3 y          0.500000      0.500000     0.000000    Fractional   0.00
      3 z          0.000000      0.000000     0.000000    Fractional   0.00
      4 x          0.000000      0.000000     0.000000    Fractional   0.00
      4 y          0.000000      0.000000     0.000000    Fractional   0.00
      4 z          0.000000      0.000000     0.000000    Fractional   0.00
      5 x          0.500000      0.500000     0.000000    Fractional   0.00
      5 y          0.500000      0.500000     0.000000    Fractional   0.00
      5 z          0.500000      0.500000     0.000000    Fractional   0.00

  Born effective charge tensors :

  Atom             x           y             z
    1 Cl    x      -0.6995     -0.0000     -0.0000
            y      -0.0000     -0.6995     -0.0000
            z      -0.0000     -0.0000     -0.6995
    2 O     x      -1.0805      0.0000      0.0000
            y       0.0000     -1.0805      0.0000
            z       0.0000      0.0000     -1.0805
    3 Na    x       0.6486      0.0000     -0.0000
            y       0.0000      0.6486      0.0000
            z      -0.0000      0.0000      0.4827

  Elastic Constant Matrix: (Units=GPa)

  Indices      1         2         3         4         5         6
       1     77.0757   16.0262   16.0262   -0.0000   -0.0000   -0.0000
       2     16.0262   77.0757   16.0262   -0.0000   -0.0000    0.0000
       3     16.0262   16.0262   77.0757    0.0000    0.0000    0.0000
       4     -0.0000   -0.0000    0.0000   16.0262    0.0000   -0.0000
       5     -0.0000   -0.0000    0.0000    0.0000   16.0262   -0.0000
       6     -0.0000    0.0000    0.0000   -0.0000   -0.0000   16.0262

  Elastic Compliance Matrix: (Units=1/GPa)

[...]
    262 z          0.000000      0.015585     0.015585    Cartesian    0.00
    263 x          8.856922      8.892623     0.035701    Cartesian    0.40
    263 y          0.000000      0.013003     0.013003    Cartesian    0.00
    263 z          4.428461      4.447925     0.019464    Cartesian    0.44
    264 x          2.214230      2.214230     0.000000    Cartesian    0.00
    264 y          2.214230      2.224865     0.010635    Cartesian    0.48
    264 z         -6.642691     -6.668135    -0.025444    Cartesian    0.38
    265 x          2.214230      2.214230     0.000000    Cartesian    0.00
    265 y         -6.642691     -6.614022     0.028669    Cartesian   -0.43
    265 z          2.214230      2.218285     0.004055    Cartesian    0.18
    266 x          6.642691      6.647503     0.004812    Cartesian    0.07
    266 y         -2.214230     -2.210963     0.003268    Cartesian   -0.15
    266 z          6.642691      6.648191     0.005499    Cartesian    0.08
    267 x          2.214230      2.214230     0.000000    Cartesian    0.00
    267 y          6.642691      6.635206    -0.007485    Cartesian   -0.11
    267 z          6.642691      6.612311    -0.030380    Cartesian   -0.46
    268 x          6.642691      6.650099     0.007408    Cartesian    0.11
    268 y          6.642691      6.657164     0.014473    Cartesian    0.22
    268 z         -2.214230     -2.222415    -0.008185    Cartesian    0.37
    269 x          4.428461      4.430775     0.002314    Cartesian    0.05
    269 y          0.000000      0.005666     0.005666    Cartesian    0.00
    269 z          8.856922      8.896776     0.039854    Cartesian    0.45
    270 x          4.428461      4.468247     0.039786    Cartesian    0.90
    270 y          8.856922      8.922438     0.065516    Cartesian    0.74
    270 z          0.000000     -0.012375    -0.012375    Cartesian    0.00
    271 x          8.856922      8.902918     0.045996    Cartesian    0.52
    271 y          4.428461      4.450734     0.022274    Cartesian    0.50
    271 z          4.428461      4.443821     0.015360    Cartesian    0.35
    272 x          4.428461      4.433057     0.004596    Cartesian    0.10
    272 y         -4.428461     -4.453746    -0.025285    Cartesian    0.57
    272 z         -4.428461     -4.439124    -0.010663    Cartesian    0.24
    273 x          2.214230      2.214230     0.000000    Cartesian    0.00
    273 y         -2.214230     -2.207988     0.006242    Cartesian   -0.28
    273 z         -6.642691     -6.637383     0.005309    Cartesian   -0.08
    274 x          2.214230      2.214230     0.000000    Cartesian    0.00
    274 y         -6.642691     -6.624611     0.018080    Cartesian   -0.27
    274 z         -2.214230     -2.210225     0.004005    Cartesian   -0.18
    275 x          4.428461      4.425410    -0.003051    Cartesian   -0.07
    275 y          4.428461      4.442033     0.013572    Cartesian    0.31
    275 z          8.856922      8.899559     0.042638    Cartesian    0.48
    276 x          4.428461      4.457942     0.029481    Cartesian    0.67
    276 y          8.856922      8.913602     0.056680    Cartesian    0.64
    276 z          4.428461      4.441120     0.012660    Cartesian    0.29
    277 x          8.856922      8.878606     0.021684    Cartesian    0.24
    277 y         -4.428461     -4.430256    -0.001796    Cartesian    0.04
    277 z          0.000000     -0.001759    -0.001759    Cartesian    0.00
    278 x          8.856922      8.889116     0.032194    Cartesian    0.36
    278 y          0.000000     -0.005721    -0.005721    Cartesian    0.00
    278 z         -4.428461     -4.432055    -0.003594    Cartesian    0.08
    279 x          6.642691      6.633156    -0.009536    Cartesian   -0.14
    279 y          2.214230      2.214961     0.000730    Cartesian    0.03
    279 z         -6.642691     -6.627027     0.015664    Cartesian   -0.24
    280 x          6.642691      6.638816    -0.003875    Cartesian   -0.06
    280 y         -6.642691     -6.623638     0.019053    Cartesian   -0.29
    280 z          2.214230      2.214050    -0.000181    Cartesian   -0.01
    281 x         11.071152     11.066419    -0.004733    Cartesian   -0.04
    281 y          2.214230      2.217577     0.003346    Cartesian    0.15
    281 z          2.214230      2.215670     0.001440    Cartesian    0.07
    282 x          6.642691      6.656612     0.013921    Cartesian    0.21
    282 y          6.642691      6.660896     0.018205    Cartesian    0.27
    282 z          6.642691      6.653235     0.010544    Cartesian    0.16
    283 x          8.856922      8.878215     0.021293    Cartesian    0.24
    283 y         -4.428461     -4.433734    -0.005273    Cartesian    0.12
    283 z          4.428461      4.442776     0.014316    Cartesian    0.32
    284 x          8.856922      8.891083     0.034162    Cartesian    0.39
    284 y          4.428461      4.450264     0.021804    Cartesian    0.49
    284 z         -4.428461     -4.427233     0.001228    Cartesian   -0.03
    285 x          6.642691      6.648079     0.005388    Cartesian    0.08
    285 y         -2.214230     -2.217264    -0.003033    Cartesian    0.14
    285 z         -6.642691     -6.644982    -0.002291    Cartesian    0.03
    286 x          6.642691      6.642950     0.000259    Cartesian    0.00
    286 y         -6.642691     -6.637216     0.005475    Cartesian   -0.08
    286 z         -2.214230     -2.216231    -0.002000    Cartesian    0.09
    287 x         11.071152     11.056121    -0.015031    Cartesian   -0.14
    287 y          2.214230      2.217621     0.003390    Cartesian    0.15
    287 z         -2.214230     -2.213862     0.000369    Cartesian   -0.02
    288 x         11.071152     11.065202    -0.005951    Cartesian   -0.05
    288 y         -2.214230     -2.207333     0.006897    Cartesian   -0.31
    288 z          2.214230      2.214512     0.000282    Cartesian    0.01
    289 x          2.214230      2.214230     0.000000    Cartesian    0.00
    289 y          6.642691      6.634425    -0.008266    Cartesian   -0.12
    289 z         -6.642691     -6.631513     0.011178    Cartesian   -0.17
    290 x          2.214230      2.214230     0.000000    Cartesian    0.00
    290 y         -6.642691     -6.624495     0.018196    Cartesian   -0.27
    290 z          6.642691      6.629281    -0.013410    Cartesian   -0.20
    291 x          4.428461      4.440917     0.012456    Cartesian    0.28
    291 y          8.856922      8.901081     0.044159    Cartesian    0.50
    291 z         -4.428461     -4.437202    -0.008741    Cartesian    0.20
    292 x          4.428461      4.440733     0.012272    Cartesian    0.28
    292 y         -4.428461     -4.429309    -0.000848    Cartesian    0.02
    292 z          8.856922      8.886777     0.029856    Cartesian    0.34
    293 x         11.071152     11.071134    -0.000018    Cartesian   -0.00
    293 y         -2.214230     -2.211712     0.002518    Cartesian   -0.11
    293 z         -2.214230     -2.211055     0.003176    Cartesian   -0.14
    294 x          2.214230      2.214230     0.000000    Cartesian    0.00
    294 y          2.214230      2.214056    -0.000175    Cartesian   -0.01
    294 z         11.071152     11.093360     0.022208    Cartesian    0.20
    295 x          2.214230      2.214230     0.000000    Cartesian    0.00
    295 y         11.071152     11.077319     0.006166    Cartesian    0.06
    295 z          2.214230      2.227977     0.013747    Cartesian    0.62
    296 x          4.428461      4.430867     0.002406    Cartesian    0.05
    296 y          0.000000      0.001375     0.001375    Cartesian    0.00
    296 z         -8.856922     -8.887496    -0.030575    Cartesian    0.35
    297 x          4.428461      4.430347     0.001887    Cartesian    0.04
    297 y         -8.856922     -8.889357    -0.032436    Cartesian    0.37
    297 z          0.000000      0.001193     0.001193    Cartesian    0.00
    298 x          8.856922      8.874311     0.017389    Cartesian    0.20
    298 y          0.000000     -0.000678    -0.000678    Cartesian    0.00
    298 z          8.856922      8.876850     0.019928    Cartesian    0.23
    299 x          8.856922      8.880310     0.023388    Cartesian    0.26
    299 y          8.856922      8.882818     0.025896    Cartesian    0.29
    299 z          0.000000      0.004528     0.004528    Cartesian    0.00
    300 x          8.856922      8.875490     0.018568    Cartesian    0.21
    300 y         -4.428461     -4.444697    -0.016237    Cartesian    0.37
    300 z         -4.428461     -4.437258    -0.008797    Cartesian    0.20
    301 x          2.214230      2.214230     0.000000    Cartesian    0.00
    301 y         11.071152     11.065166    -0.005986    Cartesian   -0.05
    301 z         -2.214230     -2.229951    -0.015721    Cartesian    0.71
    302 x          2.214230      2.214230     0.000000    Cartesian    0.00
    302 y         -2.214230     -2.223382    -0.009152    Cartesian    0.41
    302 z         11.071152     11.063221    -0.007931    Cartesian   -0.07
    303 x          6.642691      6.649002     0.006310    Cartesian    0.09
    303 y          6.642691      6.652827     0.010136    Cartesian    0.15
    303 z         -6.642691     -6.647270    -0.004579    Cartesian    0.07
    304 x          6.642691      6.644706     0.002014    Cartesian    0.03
    304 y         -6.642691     -6.642821    -0.000130    Cartesian    0.00
    304 z          6.642691      6.641649    -0.001043    Cartesian   -0.02
    305 x         11.071152     11.076759     0.005607    Cartesian    0.05
    305 y          2.214230      2.215771     0.001541    Cartesian    0.07
    305 z          6.642691      6.642685    -0.000006    Cartesian   -0.00
    306 x         11.071152     11.078006     0.006854    Cartesian    0.06
    306 y          6.642691      6.652303     0.009612    Cartesian    0.14
    306 z          2.214230      2.214742     0.000511    Cartesian    0.02
    307 x          4.428461      4.429726     0.001265    Cartesian    0.03
    307 y          4.428461      4.433037     0.004576    Cartesian    0.10
    307 z         -8.856922     -8.884229    -0.027308    Cartesian    0.31
    308 x          4.428461      4.431760     0.003299    Cartesian    0.07
    308 y         -8.856922     -8.871118    -0.014196    Cartesian    0.16
    308 z          4.428461      4.432444     0.003983    Cartesian    0.09
    309 x          8.856922      8.877179     0.020257    Cartesian    0.23
    309 y          4.428461      4.437572     0.009111    Cartesian    0.21
    309 z          8.856922      8.882659     0.025737    Cartesian    0.29
    310 x          8.856922      8.884614     0.027692    Cartesian    0.31
    310 y          8.856922      8.876286     0.019364    Cartesian    0.22
    310 z          4.428461      4.438489     0.010028    Cartesian    0.23
    311 x          2.214230      2.214230     0.000000    Cartesian    0.00
    311 y         -6.642691     -6.643596    -0.000905    Cartesian    0.01
    311 z         -6.642691     -6.641764     0.000927    Cartesian   -0.01
    312 x          6.642691      6.646469     0.003778    Cartesian    0.06
    312 y          2.214230      2.218043     0.003813    Cartesian    0.17
    312 z         11.071152     11.078646     0.007493    Cartesian    0.07
    313 x          6.642691      6.644504     0.001813    Cartesian    0.03
    313 y         11.071152     11.084055     0.012903    Cartesian    0.12
    313 z          2.214230      2.210045    -0.004185    Cartesian   -0.19
    314 x         11.071152     11.074713     0.003560    Cartesian    0.03
    314 y          6.642691      6.645347     0.002656    Cartesian    0.04
    314 z         -2.214230     -2.213979     0.000252    Cartesian   -0.01
    315 x         11.071152     11.072834     0.001682    Cartesian    0.02
    315 y         -2.214230     -2.212652     0.001579    Cartesian   -0.07
    315 z          6.642691      6.645171     0.002479    Cartesian    0.04
    316 x          4.428461      4.437258     0.008797    Cartesian    0.20
    316 y          8.856922      8.872570     0.015648    Cartesian    0.18
    316 z          8.856922      8.877643     0.020721    Cartesian    0.23
    317 x         13.285383     13.310806     0.025423    Cartesian    0.19
    317 y          0.000000     -0.000241    -0.000241    Cartesian    0.00
    317 z          0.000000      0.000887     0.000887    Cartesian    0.00
    318 x          2.214230      2.214230     0.000000    Cartesian    0.00
    318 y          6.642691      6.651822     0.009131    Cartesian    0.14
    318 z         11.071152     11.065413    -0.005739    Cartesian   -0.05
    319 x          2.214230      2.214230     0.000000    Cartesian    0.00
    319 y         11.071152     11.073656     0.002504    Cartesian    0.02
    319 z          6.642691      6.638447    -0.004244    Cartesian   -0.06
    320 x          6.642691      6.647051     0.004360    Cartesian    0.07
    320 y         11.071152     11.080174     0.009021    Cartesian    0.08
    320 z         -2.214230     -2.215691    -0.001461    Cartesian    0.07
    321 x          6.642691      6.644263     0.001572    Cartesian    0.02
    321 y         -2.214230     -2.216918    -0.002688    Cartesian    0.12
    321 z         11.071152     11.073354     0.002202    Cartesian    0.02
    322 x          4.428461      4.437682     0.009221    Cartesian    0.21
    322 y         -4.428461     -4.443578    -0.015118    Cartesian    0.34
    322 z         -8.856922     -8.880618    -0.023696    Cartesian    0.27
    323 x          4.428461      4.433679     0.005218    Cartesian    0.12
    323 y         -8.856922     -8.873917    -0.016996    Cartesian    0.19
    323 z         -4.428461     -4.439789    -0.011328    Cartesian    0.26
    324 x          8.856922      8.878636     0.021714    Cartesian    0.25
    324 y          8.856922      8.879883     0.022962    Cartesian    0.26
    324 z         -4.428461     -4.440416    -0.011955    Cartesian    0.27
    325 x          8.856922      8.872725     0.015804    Cartesian    0.18
    325 y         -4.428461     -4.437278    -0.008817    Cartesian    0.20
    325 z          8.856922      8.877238     0.020317    Cartesian    0.23
    326 x         13.285383     13.305428     0.020045    Cartesian    0.15
    326 y          0.000000     -0.000674    -0.000674    Cartesian    0.00
    326 z          4.428461      4.436437     0.007976    Cartesian    0.18
    327 x         13.285383     13.317957     0.032575    Cartesian    0.25
    327 y          4.428461      4.433592     0.005131    Cartesian    0.12
    327 z          0.000000     -0.003781    -0.003781    Cartesian    0.00
    328 x          6.642691      6.644346     0.001655    Cartesian    0.02
    328 y         -6.642691     -6.647201    -0.004510    Cartesian    0.07
    328 z         -6.642691     -6.644341    -0.001650    Cartesian    0.02
    329 x         11.071152     11.073193     0.002041    Cartesian    0.02
    329 y          2.214230      2.216051     0.001820    Cartesian    0.08
    329 z         -6.642691     -6.640818     0.001873    Cartesian   -0.03
    330 x         11.071152     11.070930    -0.000222    Cartesian   -0.00
    330 y         -6.642691     -6.642603     0.000088    Cartesian   -0.00
    330 z          2.214230      2.216980     0.002750    Cartesian    0.12
    331 x         11.071152     11.078162     0.007010    Cartesian    0.06
    331 y          6.642691      6.646157     0.003465    Cartesian    0.05
    331 z          6.642691      6.647017     0.004326    Cartesian    0.07

  Time to end of optimisation  =       50.3233 seconds

  Timing analysis for GULP :

  Task / Subroutine                                          Time (Seconds)
  Calculation of reciprocal space energy and derivatives          0.0008
  Calculation of reciprocal space energy using symmetry           0.0030
  Calculation of real space energy and derivatives                0.0040
  Calculation of real space energy using symmetry                 0.0256
  Calculation for region 1 energy and derivatives (2-b)          27.8996
  Calculation for region 2a energy                               18.6930
  Calculation for region 2b energy                                0.0073
  Calculation and manipulation of Hessian matrix                  0.2591
  Calculation of matrix inversion                                 3.1846
  Symmetry generation of equivalent positions                     0.0193

  Dump file written as Na3OCl.grs

  Job Finished at 16:32.34  5th July       2021