  Job Started  at 16:35.27  5th July       2021

  Number of CPUs =     1

  Total number of configurations input =      1

*  Input for Configuration =   1                                               *

  Formula = ClONa3

  Number of irreducible atoms/shells =       5

  Total number atoms/shells =       7

  Dimensionality = 3               :  Bulk

  Symmetry :

  Crystal family                   :  Cubic
  Crystal class  (Groth - 1921)    :  Cubic Hexakisoctahedral

  Space group (centrosymmetric)    :  P M 3 M

  Patterson group                  :  P m -3 m

  Cartesian lattice vectors (Angstroms) :

        4.504000    0.000000    0.000000
        0.000000    4.504000    0.000000
        0.000000    0.000000    4.504000

  Cell parameters (Angstroms/Degrees):

  a =       4.5040    alpha =  90.0000
  b =       4.5040    beta  =  90.0000
  c =       4.5040    gamma =  90.0000

  Initial cell volume =          91.368216 Angs**3

  Temperature of configuration =   0.00     K

  Pressure of configuration =         0.000 GPa

  Fractional coordinates of asymmetric unit :

   No.  Atomic       x           y          z         Charge      Occupancy
        Label      (Frac)      (Frac)     (Frac)        (e)         (Frac)
      1 Cl    c    0.000000    0.000000    0.000000     0.61500    1.000000
      2 O     c    0.500000    0.500000    0.500000     0.48900    1.000000
      3 Na    c    0.500000    0.500000    0.000000     0.67000    1.000000
      4 Cl    s    0.000000    0.000000    0.000000    -1.28500    1.000000
      5 O     s    0.500000    0.500000    0.500000    -1.82900    1.000000

  Constraints :

  Constraint no.      Unconstrained     Constrained    Coefficient    Offset
                         Variable         Variable
           1              Strain 1        Strain 2       1.00000      0.0000
           2              Strain 1        Strain 3       1.00000      0.0000

*  General input information                                                   *

  Species output for all configurations :

  Species    Type    Atomic    Atomic    Charge       Radii (Angs)     Library
                     Number     Mass       (e)     Cova   Ionic  VDW   Symbol
    Na       Core       11      22.99   0.670000   0.970  0.000  2.300
    O        Core        8      16.00   0.489000   0.730  0.000  1.360
    O        Shell       8       0.00  -1.829000   0.730  0.000  1.360
    Cl       Core       17      35.45   0.615000   0.990  0.000  1.650
    Cl       Shell      17       0.00  -1.285000   0.990  0.000  1.650

  Lattice summation method               =    Ewald          (3-D)
                                         =    Parry          (2-D)
                                         =    Saunders et al (1-D)
  Accuracy factor for lattice sums       =   12.000

  Analytic derivatives to be used

  Time limit = Infinity

  Maximum range for interatomic potentials =    100000.000000 Angstroms

  General interatomic potentials :

Atom  Types   Potential      Parameter       Value         Units   Cutoffs(Ang)
  1     2                                                            Min /  Max
O    c O    s Spring (c-s)  Spring k 2       34.450000    eV*Ang^-2 0.000  0.800
                            Spring k 4       0.0000000    eV*Ang^-4
Cl   c Cl   s Spring (c-s)  Spring k 2       28.250000    eV*Ang^-2 0.000  0.800
                            Spring k 4       0.0000000    eV*Ang^-4
Na   c Na   c Buckingham    Buckingham A     996.28210    eV        0.000 12.000
                            Buckingham rho  0.28830000    Ang
                            Buckingham C     0.0000000    eV*Ang^6
Na   c O    s Buckingham    Buckingham A     12439.222    eV        0.000 12.000
                            Buckingham rho  0.20150000    Ang
                            Buckingham C     0.0000000    eV*Ang^6
Na   c Cl   s Buckingham    Buckingham A     20907.738    eV        0.000 12.000
                            Buckingham rho  0.21660000    Ang
                            Buckingham C     0.0000000    eV*Ang^6
O    s O    s Buckingham    Buckingham A     35546.853    eV        0.000 12.000
                            Buckingham rho  0.12056000    Ang
                            Buckingham C     13.190000    eV*Ang^6
O    s Cl   s Buckingham    Buckingham A     47777.071    eV        0.000 12.000
                            Buckingham rho  0.24370000    Ang
                            Buckingham C     62.200000    eV*Ang^6
Cl   s Cl   s Buckingham    Buckingham A     35155.254    eV        0.000 12.000
                            Buckingham rho  0.21360000    Ang
                            Buckingham C     14.530000    eV*Ang^6

*  Output for configuration   1                                                *

  Components of energy :

  Interatomic potentials     =           1.21745275 eV
  Monopole - monopole (real) =          -4.50527050 eV
  Monopole - monopole (recip)=         -13.25862634 eV
  Monopole - monopole (total)=         -17.76389683 eV
  Total lattice energy       =         -16.54644409 eV
  Total lattice energy       =           -1596.4789 kJ/(mole unit cells)

  Number of variables =        1

  Maximum number of calculations  =          1000
  Maximum Hessian update interval =            10
  Maximum step size               =   1.000000000
  Maximum parameter tolerance     =   0.000010000
  Maximum function  tolerance     =   0.000010000
  Maximum gradient  tolerance     =   0.001000000
  Maximum gradient  component     =   0.010000000

  Symmetry constrained optimisation

  Symmetry used for second derivatives

  Cell parameters to be optimised using strains

  Newton-Raphson optimiser to be used

  BFGS hessian update to be used

  Lower half triangular hessian to be used

  Start of bulk optimisation :

  ** Hessian calculated **

  **** Optimisation achieved ****

  Final energy =     -16.57035847 eV
  Final Gnorm  =       0.00000012

  Components of energy :

  Interatomic potentials     =           1.49654868 eV
  Monopole - monopole (real) =          -4.58211982 eV
  Monopole - monopole (recip)=         -13.48478733 eV
  Monopole - monopole (total)=         -18.06690714 eV
  Total lattice energy       =         -16.57035847 eV
  Total lattice energy       =           -1598.7863 kJ/(mole unit cells)

  Final asymmetric unit coordinates :

   No.  Atomic        x           y           z         Radius
        Label       (Frac)      (Frac)      (Frac)       (Angs)
     1  Cl    c     0.000000    0.000000    0.000000    0.000000
     2  O     c     0.500000    0.500000    0.500000    0.000000
     3  Na    c     0.500000    0.500000    0.000000    0.000000
     4  Cl    s     0.000000    0.000000    0.000000    0.000000
     5  O     s     0.500000    0.500000    0.500000    0.000000

  Final Cartesian lattice vectors (Angstroms) :

        4.428461    0.000000    0.000000
        0.000000    4.428461    0.000000
        0.000000    0.000000    4.428461

  Final cell parameters and derivatives :

       a            4.428461 Angstrom     dE/de1(xx)     0.000000 eV/strain
       b            4.428461 Angstrom     dE/de2(yy)     0.000000 eV/strain
       c            4.428461 Angstrom     dE/de3(zz)     0.000000 eV/strain
       alpha       90.000000 Degrees      dE/de4(yz)     0.000000 eV/strain
       beta        90.000000 Degrees      dE/de5(xz)     0.000000 eV/strain
       gamma       90.000000 Degrees      dE/de6(xy)     0.000000 eV/strain

  Primitive cell volume =            86.847723 Angs**3

  Density of cell =      2.302482 g/cm**3

  Non-primitive cell volume =            86.847723 Angs**3

  Final internal derivatives :

   No.  Atomic          a             b             c           Radius
        Label          (eV)          (eV)          (eV)        (eV/Angs)
      1 Cl    c       0.000000      0.000000      0.000000      0.000000
      2 O     c       0.000000      0.000000      0.000000      0.000000
      3 Na    c       0.000000      0.000000      0.000000      0.000000
      4 Cl    s       0.000000      0.000000      0.000000      0.000000
      5 O     s       0.000000      0.000000      0.000000      0.000000
  Maximum abs         0.000000      0.000000      0.000000      0.000000

  Comparison of initial and final structures :

  Parameter   Initial value   Final value   Difference    Units      Percent
    Volume        91.368216     86.847723    -4.520493    Angs**3     -4.95
    a              4.504000      4.428461    -0.075539    Angstroms   -1.68
    b              4.504000      4.428461    -0.075539    Angstroms   -1.68
    c              4.504000      4.428461    -0.075539    Angstroms   -1.68
    alpha         90.000000     90.000000     0.000000    Degrees      0.00
    beta          90.000000     90.000000     0.000000    Degrees      0.00
    gamma         90.000000     90.000000     0.000000    Degrees      0.00
      1 x          0.000000      0.000000     0.000000    Fractional   0.00
      1 y          0.000000      0.000000     0.000000    Fractional   0.00
      1 z          0.000000      0.000000     0.000000    Fractional   0.00
      2 x          0.500000      0.500000     0.000000    Fractional   0.00
      2 y          0.500000      0.500000     0.000000    Fractional   0.00
      2 z          0.500000      0.500000     0.000000    Fractional   0.00
      3 x          0.500000      0.500000     0.000000    Fractional   0.00
      3 y          0.500000      0.500000     0.000000    Fractional   0.00
      3 z          0.000000      0.000000     0.000000    Fractional   0.00
      4 x          0.000000      0.000000     0.000000    Fractional   0.00
      4 y          0.000000      0.000000     0.000000    Fractional   0.00
      4 z          0.000000      0.000000     0.000000    Fractional   0.00
      5 x          0.500000      0.500000     0.000000    Fractional   0.00
      5 y          0.500000      0.500000     0.000000    Fractional   0.00
      5 z          0.500000      0.500000     0.000000    Fractional   0.00

  Born effective charge tensors :

  Atom             x           y             z
    1 Cl    x      -0.6995     -0.0000     -0.0000
            y      -0.0000     -0.6995     -0.0000
            z      -0.0000     -0.0000     -0.6995
    2 O     x      -1.0805      0.0000      0.0000
            y       0.0000     -1.0805      0.0000
            z       0.0000      0.0000     -1.0805
    3 Na    x       0.6486      0.0000     -0.0000
            y       0.0000      0.6486      0.0000
            z      -0.0000      0.0000      0.4827

  Elastic Constant Matrix: (Units=GPa)

  Indices      1         2         3         4         5         6
       1     77.0757   16.0262   16.0262   -0.0000   -0.0000   -0.0000
       2     16.0262   77.0757   16.0262   -0.0000   -0.0000    0.0000
       3     16.0262   16.0262   77.0757    0.0000    0.0000    0.0000
       4     -0.0000   -0.0000    0.0000   16.0262    0.0000   -0.0000
       5     -0.0000   -0.0000    0.0000    0.0000   16.0262   -0.0000
       6     -0.0000    0.0000    0.0000   -0.0000   -0.0000   16.0262

  Elastic Compliance Matrix: (Units=1/GPa)

[...]
    263 x          8.856922      8.887463     0.030541    Cartesian    0.34
    263 y          0.000000      0.003473     0.003473    Cartesian    0.00
    263 z          4.428461      4.451657     0.023196    Cartesian    0.52
    264 x          2.214230      2.214230     0.000000    Cartesian    0.00
    264 y          2.214230      2.215037     0.000806    Cartesian    0.04
    264 z         -6.642691     -6.621007     0.021684    Cartesian   -0.33
    265 x          2.214230      2.214230     0.000000    Cartesian    0.00
    265 y         -6.642691     -6.675623    -0.032932    Cartesian    0.50
    265 z          2.214230      2.215376     0.001146    Cartesian    0.05
    266 x          6.642691      6.647993     0.005302    Cartesian    0.08
    266 y         -2.214230     -2.221438    -0.007207    Cartesian    0.33
    266 z          6.642691      6.652483     0.009792    Cartesian    0.15
    267 x          2.214230      2.214230     0.000000    Cartesian    0.00
    267 y          6.642691      6.636317    -0.006374    Cartesian   -0.10
    267 z          6.642691      6.642108    -0.000583    Cartesian   -0.01
    268 x          6.642691      6.651081     0.008390    Cartesian    0.13
    268 y          6.642691      6.651157     0.008465    Cartesian    0.13
    268 z         -2.214230     -2.219315    -0.005085    Cartesian    0.23
    269 x          4.428461      4.445640     0.017179    Cartesian    0.39
    269 y          0.000000      0.000957     0.000957    Cartesian    0.00
    269 z          8.856922      8.895396     0.038474    Cartesian    0.43
    270 x          4.428461      4.432284     0.003823    Cartesian    0.09
    270 y          8.856922      8.889925     0.033003    Cartesian    0.37
    270 z          0.000000      0.003347     0.003347    Cartesian    0.00
    271 x          8.856922      8.894502     0.037580    Cartesian    0.42
    271 y          4.428461      4.435735     0.007274    Cartesian    0.16
    271 z          4.428461      4.451304     0.022843    Cartesian    0.52
    272 x          4.428461      4.443676     0.015215    Cartesian    0.34
    272 y         -4.428461     -4.432805    -0.004345    Cartesian    0.10
    272 z         -4.428461     -4.466798    -0.038337    Cartesian    0.87
    273 x          2.214230      2.214230     0.000000    Cartesian    0.00
    273 y         -2.214230     -2.215559    -0.001329    Cartesian    0.06
    273 z         -6.642691     -6.623324     0.019368    Cartesian   -0.29
    274 x          2.214230      2.214230     0.000000    Cartesian    0.00
    274 y         -6.642691     -6.630852     0.011839    Cartesian   -0.18
    274 z         -2.214230     -2.206696     0.007534    Cartesian   -0.34
    275 x          4.428461      4.444861     0.016400    Cartesian    0.37
    275 y          4.428461      4.440561     0.012100    Cartesian    0.27
    275 z          8.856922      8.898339     0.041417    Cartesian    0.47
    276 x          4.428461      4.432186     0.003725    Cartesian    0.08
    276 y          8.856922      8.890447     0.033526    Cartesian    0.38
    276 z          4.428461      4.430505     0.002044    Cartesian    0.05
    277 x          8.856922      8.896519     0.039598    Cartesian    0.45
    277 y         -4.428461     -4.434377    -0.005916    Cartesian    0.13
    277 z          0.000000     -0.014925    -0.014925    Cartesian    0.00
    278 x          8.856922      8.875908     0.018986    Cartesian    0.21
    278 y          0.000000      0.002903     0.002903    Cartesian    0.00
    278 z         -4.428461     -4.445397    -0.016936    Cartesian    0.38
    279 x          6.642691      6.640786    -0.001906    Cartesian   -0.03
    279 y          2.214230      2.214620     0.000390    Cartesian    0.02
    279 z         -6.642691     -6.639453     0.003238    Cartesian   -0.05
    280 x          6.642691      6.632923    -0.009768    Cartesian   -0.15
    280 y         -6.642691     -6.628841     0.013850    Cartesian   -0.21
    280 z          2.214230      2.215533     0.001303    Cartesian    0.06
    281 x         11.071152     11.050912    -0.020240    Cartesian   -0.18
    281 y          2.214230      2.214593     0.000363    Cartesian    0.02
    281 z          2.214230      2.215012     0.000782    Cartesian    0.04
    282 x          6.642691      6.652339     0.009648    Cartesian    0.15
    282 y          6.642691      6.648886     0.006195    Cartesian    0.09
    282 z          6.642691      6.652048     0.009356    Cartesian    0.14
    283 x          8.856922      8.896866     0.039944    Cartesian    0.45
    283 y         -4.428461     -4.430661    -0.002200    Cartesian    0.05
    283 z          4.428461      4.447042     0.018581    Cartesian    0.42
    284 x          8.856922      8.875687     0.018765    Cartesian    0.21
    284 y          4.428461      4.441849     0.013388    Cartesian    0.30
    284 z         -4.428461     -4.446264    -0.017803    Cartesian    0.40
    285 x          6.642691      6.641269    -0.001422    Cartesian   -0.02
    285 y         -2.214230     -2.214475    -0.000245    Cartesian    0.01
    285 z         -6.642691     -6.640531     0.002160    Cartesian   -0.03
    286 x          6.642691      6.649123     0.006432    Cartesian    0.10
    286 y         -6.642691     -6.647496    -0.004804    Cartesian    0.07
    286 z         -2.214230     -2.221741    -0.007510    Cartesian    0.34
    287 x         11.071152     11.070576    -0.000576    Cartesian   -0.01
    287 y          2.214230      2.213694    -0.000536    Cartesian   -0.02
    287 z         -2.214230     -2.212430     0.001801    Cartesian   -0.08
    288 x         11.071152     11.051531    -0.019621    Cartesian   -0.18
    288 y         -2.214230     -2.216278    -0.002048    Cartesian    0.09
    288 z          2.214230      2.215700     0.001470    Cartesian    0.07
    289 x          2.214230      2.214230     0.000000    Cartesian    0.00
    289 y          6.642691      6.639446    -0.003246    Cartesian   -0.05
    289 z         -6.642691     -6.637269     0.005422    Cartesian   -0.08
    290 x          2.214230      2.214230     0.000000    Cartesian    0.00
    290 y         -6.642691     -6.631379     0.011312    Cartesian   -0.17
    290 z          6.642691      6.633618    -0.009073    Cartesian   -0.14
    291 x          4.428461      4.438234     0.009773    Cartesian    0.22
    291 y          8.856922      8.876425     0.019503    Cartesian    0.22
    291 z         -4.428461     -4.439385    -0.010924    Cartesian    0.25
    292 x          4.428461      4.441510     0.013049    Cartesian    0.29
    292 y         -4.428461     -4.431910    -0.003450    Cartesian    0.08
    292 z          8.856922      8.898418     0.041496    Cartesian    0.47
    293 x         11.071152     11.072300     0.001148    Cartesian    0.01
    293 y         -2.214230     -2.212045     0.002185    Cartesian   -0.10
    293 z         -2.214230     -2.213592     0.000639    Cartesian   -0.03
    294 x          2.214230      2.214230     0.000000    Cartesian    0.00
    294 y          2.214230      2.224413     0.010182    Cartesian    0.46
    294 z         11.071152     11.065628    -0.005524    Cartesian   -0.05
    295 x          2.214230      2.214230     0.000000    Cartesian    0.00
    295 y         11.071152     11.082423     0.011270    Cartesian    0.10
    295 z          2.214230      2.209980    -0.004251    Cartesian   -0.19
    296 x          4.428461      4.429873     0.001412    Cartesian    0.03
    296 y          0.000000      0.000837     0.000837    Cartesian    0.00
    296 z         -8.856922     -8.883000    -0.026078    Cartesian    0.29
    297 x          4.428461      4.429431     0.000970    Cartesian    0.02
    297 y         -8.856922     -8.885811    -0.028889    Cartesian    0.33
    297 z          0.000000     -0.002719    -0.002719    Cartesian    0.00
    298 x          8.856922      8.875997     0.019076    Cartesian    0.22
    298 y          0.000000      0.003533     0.003533    Cartesian    0.00
    298 z          8.856922      8.877577     0.020655    Cartesian    0.23
    299 x          8.856922      8.867856     0.010935    Cartesian    0.12
    299 y          8.856922      8.875220     0.018298    Cartesian    0.21
    299 z          0.000000     -0.007430    -0.007430    Cartesian    0.00
    300 x          8.856922      8.874784     0.017862    Cartesian    0.20
    300 y         -4.428461     -4.436598    -0.008137    Cartesian    0.18
    300 z         -4.428461     -4.449786    -0.021325    Cartesian    0.48
    301 x          2.214230      2.214230     0.000000    Cartesian    0.00
    301 y         11.071152     11.071959     0.000806    Cartesian    0.01
    301 z         -2.214230     -2.215081    -0.000851    Cartesian    0.04
    302 x          2.214230      2.214230     0.000000    Cartesian    0.00
    302 y         -2.214230     -2.223565    -0.009334    Cartesian    0.42
    302 z         11.071152     11.064428    -0.006725    Cartesian   -0.06
    303 x          6.642691      6.642396    -0.000296    Cartesian   -0.00
    303 y          6.642691      6.642496    -0.000196    Cartesian   -0.00
    303 z         -6.642691     -6.644243    -0.001552    Cartesian    0.02
    304 x          6.642691      6.649851     0.007160    Cartesian    0.11
    304 y         -6.642691     -6.648632    -0.005940    Cartesian    0.09
    304 z          6.642691      6.651427     0.008736    Cartesian    0.13
    305 x         11.071152     11.073649     0.002497    Cartesian    0.02
    305 y          2.214230      2.214038    -0.000193    Cartesian   -0.01
    305 z          6.642691      6.643057     0.000366    Cartesian    0.01
    306 x         11.071152     11.069104    -0.002048    Cartesian   -0.02
    306 y          6.642691      6.630230    -0.012461    Cartesian   -0.19
    306 z          2.214230      2.214518     0.000287    Cartesian    0.01
    307 x          4.428461      4.430780     0.002319    Cartesian    0.05
    307 y          4.428461      4.434905     0.006444    Cartesian    0.15
    307 z         -8.856922     -8.872054    -0.015133    Cartesian    0.17
    308 x          4.428461      4.428495     0.000034    Cartesian    0.00
    308 y         -8.856922     -8.887906    -0.030985    Cartesian    0.35
    308 z          4.428461      4.427731    -0.000730    Cartesian   -0.02
    309 x          8.856922      8.877021     0.020099    Cartesian    0.23
    309 y          4.428461      4.441654     0.013193    Cartesian    0.30
    309 z          8.856922      8.874334     0.017413    Cartesian    0.20
    310 x          8.856922      8.870316     0.013394    Cartesian    0.15
    310 y          8.856922      8.879263     0.022341    Cartesian    0.25
    310 z          4.428461      4.434577     0.006116    Cartesian    0.14
    311 x          2.214230      2.214230     0.000000    Cartesian    0.00
    311 y         -6.642691     -6.639728     0.002963    Cartesian   -0.04
    311 z         -6.642691     -6.643275    -0.000583    Cartesian    0.01
    312 x          6.642691      6.645261     0.002570    Cartesian    0.04
    312 y          2.214230      2.212187    -0.002043    Cartesian   -0.09
    312 z         11.071152     11.075776     0.004624    Cartesian    0.04
    313 x          6.642691      6.649098     0.006407    Cartesian    0.10
    313 y         11.071152     11.067729    -0.003423    Cartesian   -0.03
    313 z          2.214230      2.215559     0.001329    Cartesian    0.06
    314 x         11.071152     11.074275     0.003122    Cartesian    0.03
    314 y          6.642691      6.644877     0.002186    Cartesian    0.03
    314 z         -2.214230     -2.213306     0.000925    Cartesian   -0.04
    315 x         11.071152     11.074186     0.003034    Cartesian    0.03
    315 y         -2.214230     -2.212821     0.001409    Cartesian   -0.06
    315 z          6.642691      6.644916     0.002224    Cartesian    0.03
    316 x          4.428461      4.435724     0.007264    Cartesian    0.16
    316 y          8.856922      8.879837     0.022915    Cartesian    0.26
    316 z          8.856922      8.871991     0.015070    Cartesian    0.17
    317 x         13.285383     13.318705     0.033323    Cartesian    0.25
    317 y          0.000000      0.002020     0.002020    Cartesian    0.00
    317 z          0.000000     -0.000452    -0.000452    Cartesian    0.00
    318 x          2.214230      2.214230     0.000000    Cartesian    0.00
    318 y          6.642691      6.640047    -0.002644    Cartesian   -0.04
    318 z         11.071152     11.074128     0.002976    Cartesian    0.03
    319 x          2.214230      2.214230     0.000000    Cartesian    0.00
    319 y         11.071152     11.068237    -0.002915    Cartesian   -0.03
    319 z          6.642691      6.648908     0.006217    Cartesian    0.09
    320 x          6.642691      6.644323     0.001632    Cartesian    0.02
    320 y         11.071152     11.074781     0.003629    Cartesian    0.03
    320 z         -2.214230     -2.216326    -0.002096    Cartesian    0.09
    321 x          6.642691      6.645797     0.003106    Cartesian    0.05
    321 y         -2.214230     -2.215042    -0.000812    Cartesian    0.04
    321 z         11.071152     11.077251     0.006099    Cartesian    0.06
    322 x          4.428461      4.429138     0.000677    Cartesian    0.02
    322 y         -4.428461     -4.435766    -0.007305    Cartesian    0.16
    322 z         -8.856922     -8.876766    -0.019845    Cartesian    0.22
    323 x          4.428461      4.438866     0.010405    Cartesian    0.23
    323 y         -8.856922     -8.882113    -0.025191    Cartesian    0.28
    323 z         -4.428461     -4.444718    -0.016257    Cartesian    0.37
    324 x          8.856922      8.870982     0.014061    Cartesian    0.16
    324 y          8.856922      8.875481     0.018559    Cartesian    0.21
    324 z         -4.428461     -4.441806    -0.013345    Cartesian    0.30
    325 x          8.856922      8.878973     0.022052    Cartesian    0.25
    325 y         -4.428461     -4.439512    -0.011051    Cartesian    0.25
    325 z          8.856922      8.879843     0.022922    Cartesian    0.26
    326 x         13.285383     13.319911     0.034528    Cartesian    0.26
    326 y          0.000000      0.000600     0.000600    Cartesian    0.00
    326 z          4.428461      4.428295    -0.000166    Cartesian   -0.00
    327 x         13.285383     13.305757     0.020375    Cartesian    0.15
    327 y          4.428461      4.436146     0.007685    Cartesian    0.17
    327 z          0.000000      0.002841     0.002841    Cartesian    0.00
    328 x          6.642691      6.644298     0.001607    Cartesian    0.02
    328 y         -6.642691     -6.645965    -0.003273    Cartesian    0.05
    328 z         -6.642691     -6.647625    -0.004934    Cartesian    0.07
    329 x         11.071152     11.073885     0.002733    Cartesian    0.02
    329 y          2.214230      2.217189     0.002958    Cartesian    0.13
    329 z         -6.642691     -6.644176    -0.001485    Cartesian    0.02
    330 x         11.071152     11.075405     0.004253    Cartesian    0.04
    330 y         -6.642691     -6.639466     0.003225    Cartesian   -0.05
    330 z          2.214230      2.215679     0.001449    Cartesian    0.07
    331 x         11.071152     11.076118     0.004966    Cartesian    0.04
    331 y          6.642691      6.646398     0.003706    Cartesian    0.06
    331 z          6.642691      6.645218     0.002527    Cartesian    0.04

  Time to end of optimisation  =       62.6027 seconds

  Timing analysis for GULP :

  Task / Subroutine                                          Time (Seconds)
  Calculation of reciprocal space energy and derivatives          0.0032
  Calculation of reciprocal space energy using symmetry           0.0058
  Calculation of real space energy and derivatives                0.0203
  Calculation of real space energy using symmetry                 0.0605
  Calculation for region 1 energy and derivatives (2-b)          36.1161
  Calculation for region 2a energy                               22.3932
  Calculation for region 2b energy                                0.0102
  Calculation and manipulation of Hessian matrix                  0.1649
  Calculation of matrix inversion                                 3.3997
  Symmetry generation of equivalent positions                     0.0216
  Global summation overhead                                       0.0001

  Dump file written as Na3OCl.grs

  Job Finished at 16:36.46  5th July       2021