  Job Started  at 17:29.45  1st March      2021

  Number of CPUs =     1

  Total number of configurations input =      1

*  Input for Configuration =   1                                               *

  Formula = ClONa3

  Number of irreducible atoms/shells =       5

  Total number atoms/shells =       7

  Dimensionality = 3               :  Bulk

  Symmetry :

  Crystal family                   :  Cubic
  Crystal class  (Groth - 1921)    :  Cubic Hexakisoctahedral

  Space group (centrosymmetric)    :  P M 3 M

  Patterson group                  :  P m -3 m

  Cartesian lattice vectors (Angstroms) :

        4.504000    0.000000    0.000000
        0.000000    4.504000    0.000000
        0.000000    0.000000    4.504000

  Cell parameters (Angstroms/Degrees):

  a =       4.5040    alpha =  90.0000
  b =       4.5040    beta  =  90.0000
  c =       4.5040    gamma =  90.0000

  Initial cell volume =          91.368216 Angs**3

  Temperature of configuration =   0.00     K

  Pressure of configuration =         0.000 GPa

  Fractional coordinates of asymmetric unit :

   No.  Atomic       x           y          z         Charge      Occupancy
        Label      (Frac)      (Frac)     (Frac)        (e)         (Frac)
      1 Cl    c    0.000000    0.000000    0.000000     0.99600    1.000000
      2 O     c    0.500000    0.500000    0.500000     1.44300    1.000000
      3 Na    c    0.500000    0.500000    0.000000     1.00000    1.000000
      4 Cl    s    0.000000    0.000000    0.000000    -1.99600    1.000000
      5 O     s    0.500000    0.500000    0.500000    -3.44300    1.000000

  Constraints :

  Constraint no.      Unconstrained     Constrained    Coefficient    Offset
                         Variable         Variable
           1              Strain 1        Strain 2       1.00000      0.0000
           2              Strain 1        Strain 3       1.00000      0.0000

*  General input information                                                   *

  Species output for all configurations :

  Species    Type    Atomic    Atomic    Charge       Radii (Angs)     Library
                     Number     Mass       (e)     Cova   Ionic  VDW   Symbol
    Na       Core       11      22.99   1.000000   0.970  0.000  2.300
    O        Core        8      16.00   1.443000   0.730  0.000  1.360
    O        Shell       8       0.00  -3.443000   0.730  0.000  1.360
    Cl       Core       17      35.45   0.996000   0.990  0.000  1.650
    Cl       Shell      17       0.00  -1.996000   0.990  0.000  1.650

  Lattice summation method               =    Ewald          (3-D)
                                         =    Parry          (2-D)
                                         =    Saunders et al (1-D)
  Accuracy factor for lattice sums       =   12.000

  Analytic derivatives to be used

  Time limit = Infinity

  Maximum range for interatomic potentials =    100000.000000 Angstroms

  General interatomic potentials :

Atom  Types   Potential      Parameter       Value         Units   Cutoffs(Ang)
  1     2                                                            Min /  Max
O    c O    s Spring (c-s)  Spring k 2       20.486200    eV*Ang^-2 0.000  0.800
                            Spring k 4       0.0000000    eV*Ang^-4
Cl   c Cl   s Spring (c-s)  Spring k 2       10.001500    eV*Ang^-2 0.000  0.800
                            Spring k 4       0.0000000    eV*Ang^-4
Na   c Na   c Buckingham    Buckingham A     29281.710    eV        0.000 12.000
                            Buckingham rho  0.37200000E-01Ang
                            Buckingham C     0.0000000    eV*Ang^6
Na   c O    s Buckingham    Buckingham A     602.40000    eV        0.000 12.000
                            Buckingham rho  0.34280000    Ang
                            Buckingham C     0.0000000    eV*Ang^6
Na   c Cl   s Buckingham    Buckingham A     3515.6900    eV        0.000 12.000
                            Buckingham rho  0.27460000    Ang
                            Buckingham C     0.0000000    eV*Ang^6
O    s O    s Buckingham    Buckingham A     25201.690    eV        0.000 12.000
                            Buckingham rho  0.16450000    Ang
                            Buckingham C     13.190000    eV*Ang^6
O    s Cl   s Buckingham    Buckingham A     1105.8600    eV        0.000 12.000
                            Buckingham rho  0.31330000    Ang
                            Buckingham C     62.200000    eV*Ang^6
Cl   s Cl   s Buckingham    Buckingham A     31408.750    eV        0.000 12.000
                            Buckingham rho  0.13660000    Ang
                            Buckingham C     14.530000    eV*Ang^6

*  Output for configuration   1                                                *

  Components of energy :

  Interatomic potentials     =           5.33200327 eV
  Monopole - monopole (real) =         -10.03624526 eV
  Monopole - monopole (recip)=         -29.53581274 eV
  Monopole - monopole (total)=         -39.57205800 eV
  Total lattice energy       =         -34.24005473 eV
  Total lattice energy       =           -3303.6419 kJ/(mole unit cells)

  Number of variables =        1

  Maximum number of calculations  =          1000
  Maximum Hessian update interval =            10
  Maximum step size               =   1.000000000
  Maximum parameter tolerance     =   0.000010000
  Maximum function  tolerance     =   0.000010000
  Maximum gradient  tolerance     =   0.001000000
  Maximum gradient  component     =   0.010000000

  Symmetry constrained optimisation

  Symmetry used for second derivatives

  Cell parameters to be optimised using strains

  Newton-Raphson optimiser to be used

  BFGS hessian update to be used

  Lower half triangular hessian to be used

  Start of bulk optimisation :

  ** Hessian calculated **

  **** Optimisation achieved ****

  Final energy =     -34.25274716 eV
  Final Gnorm  =       0.00056121

  Components of energy :

  Interatomic potentials     =           5.76377683 eV
  Monopole - monopole (real) =         -10.14897050 eV
  Monopole - monopole (recip)=         -29.86755349 eV
  Monopole - monopole (total)=         -40.01652399 eV
  Total lattice energy       =         -34.25274716 eV
  Total lattice energy       =           -3304.8665 kJ/(mole unit cells)

  Final asymmetric unit coordinates :

   No.  Atomic        x           y           z         Radius
        Label       (Frac)      (Frac)      (Frac)       (Angs)
     1  Cl    c     0.000000    0.000000    0.000000    0.000000
     2  O     c     0.500000    0.500000    0.500000    0.000000
     3  Na    c     0.500000    0.500000    0.000000    0.000000
     4  Cl    s     0.000000    0.000000    0.000000    0.000000
     5  O     s     0.500000    0.500000    0.500000    0.000000

  Final Cartesian lattice vectors (Angstroms) :

        4.453974    0.000000    0.000000
        0.000000    4.453974    0.000000
        0.000000    0.000000    4.453974

  Final cell parameters and derivatives :

       a            4.453974 Angstrom     dE/de1(xx)     0.000561 eV/strain
       b            4.453974 Angstrom     dE/de2(yy)     0.000000 eV/strain
       c            4.453974 Angstrom     dE/de3(zz)     0.000000 eV/strain
       alpha       90.000000 Degrees      dE/de4(yz)     0.000000 eV/strain
       beta        90.000000 Degrees      dE/de5(xz)     0.000000 eV/strain
       gamma       90.000000 Degrees      dE/de6(xy)     0.000000 eV/strain

  Primitive cell volume =            88.357409 Angs**3

  Density of cell =      2.263141 g/cm**3

  Non-primitive cell volume =            88.357409 Angs**3

  Final internal derivatives :

   No.  Atomic          a             b             c           Radius
        Label          (eV)          (eV)          (eV)        (eV/Angs)
      1 Cl    c       0.000000      0.000000      0.000000      0.000000
      2 O     c       0.000000      0.000000      0.000000      0.000000
      3 Na    c       0.000000      0.000000      0.000000      0.000000
      4 Cl    s       0.000000      0.000000      0.000000      0.000000
      5 O     s       0.000000      0.000000      0.000000      0.000000
  Maximum abs         0.000000      0.000000      0.000000      0.000000

  Comparison of initial and final structures :

  Parameter   Initial value   Final value   Difference    Units      Percent
    Volume        91.368216     88.357409    -3.010807    Angs**3     -3.30
    a              4.504000      4.453974    -0.050026    Angstroms   -1.11
    b              4.504000      4.453974    -0.050026    Angstroms   -1.11
    c              4.504000      4.453974    -0.050026    Angstroms   -1.11
    alpha         90.000000     90.000000     0.000000    Degrees      0.00
    beta          90.000000     90.000000     0.000000    Degrees      0.00
    gamma         90.000000     90.000000     0.000000    Degrees      0.00
      1 x          0.000000      0.000000     0.000000    Fractional   0.00
      1 y          0.000000      0.000000     0.000000    Fractional   0.00
      1 z          0.000000      0.000000     0.000000    Fractional   0.00
      2 x          0.500000      0.500000     0.000000    Fractional   0.00
      2 y          0.500000      0.500000     0.000000    Fractional   0.00
      2 z          0.500000      0.500000     0.000000    Fractional   0.00
      3 x          0.500000      0.500000     0.000000    Fractional   0.00
      3 y          0.500000      0.500000     0.000000    Fractional   0.00
      3 z          0.000000      0.000000     0.000000    Fractional   0.00
      4 x          0.000000      0.000000     0.000000    Fractional   0.00
      4 y          0.000000      0.000000     0.000000    Fractional   0.00
      4 z          0.000000      0.000000     0.000000    Fractional   0.00
      5 x          0.500000      0.500000     0.000000    Fractional   0.00
      5 y          0.500000      0.500000     0.000000    Fractional   0.00
      5 z          0.500000      0.500000     0.000000    Fractional   0.00

  Born effective charge tensors :

  Atom             x           y             z
    1 Cl    x      -1.4271      0.0000      0.0000
            y       0.0000     -1.4271      0.0000
            z       0.0000      0.0000     -1.4271
    2 O     x      -1.6137     -0.0000     -0.0000
            y      -0.0000     -1.6137     -0.0000
            z      -0.0000     -0.0000     -1.6137
    3 Na    x       0.8295     -0.0000     -0.0000
            y      -0.0000      0.8295      0.0000
            z      -0.0000      0.0000      1.3817

  Elastic Constant Matrix: (Units=GPa)

  Indices      1         2         3         4         5         6
       1     82.8226   21.5342   21.5342    0.0000   -0.0000   -0.0000
       2     21.5342   82.8226   21.5342   -0.0000    0.0000   -0.0000
       3     21.5342   21.5342   82.8226    0.0000    0.0000   -0.0000
       4      0.0000   -0.0000    0.0000   21.5346   -0.0000    0.0000
       5     -0.0000    0.0000    0.0000   -0.0000   21.5346    0.0000
       6     -0.0000   -0.0000   -0.0000    0.0000    0.0000   21.5346

  Elastic Compliance Matrix: (Units=1/GPa)

[...]
    262 z          4.453974      4.459715     0.005741    Cartesian    0.13
    263 x          8.907948      8.928073     0.020125    Cartesian    0.23
    263 y          4.453974      4.460766     0.006793    Cartesian    0.15
    263 z          0.000000     -0.017631    -0.017631    Cartesian    0.00
    264 x          2.226987      2.226987     0.000000    Cartesian    0.00
    264 y          6.680961      6.665475    -0.015486    Cartesian   -0.23
    264 z          6.680961      6.713367     0.032406    Cartesian    0.49
    265 x         -2.226987     -2.243271    -0.016284    Cartesian    0.73
    265 y          6.680961      6.679322    -0.001639    Cartesian   -0.02
    265 z         -2.226987     -2.238139    -0.011152    Cartesian    0.50
    266 x         -2.226987     -2.248663    -0.021676    Cartesian    0.97
    266 y         -2.226987     -2.215674     0.011313    Cartesian   -0.51
    266 z          6.680961      6.693474     0.012513    Cartesian    0.19
    267 x          2.226987      2.226987     0.000000    Cartesian    0.00
    267 y          2.226987      2.241197     0.014210    Cartesian    0.64
    267 z         -6.680961     -6.634000     0.046961    Cartesian   -0.70
    268 x          2.226987      2.226987     0.000000    Cartesian    0.00
    268 y         -6.680961     -6.698516    -0.017555    Cartesian    0.26
    268 z          2.226987      2.179560    -0.047427    Cartesian   -2.13
    269 x          4.453974      4.453400    -0.000574    Cartesian   -0.01
    269 y         -4.453974     -4.461134    -0.007160    Cartesian    0.16
    269 z         -4.453974     -4.483283    -0.029309    Cartesian    0.66
    270 x          4.453974      4.475807     0.021833    Cartesian    0.49
    270 y          0.000000     -0.000007    -0.000007    Cartesian    0.00
    270 z          8.907948      8.996914     0.088967    Cartesian    1.00
    271 x          4.453974      4.494753     0.040779    Cartesian    0.92
    271 y          8.907948      8.952781     0.044834    Cartesian    0.50
    271 z          0.000000     -0.000934    -0.000934    Cartesian    0.00
    272 x          8.907948      8.943204     0.035256    Cartesian    0.40
    272 y          4.453974      4.456141     0.002167    Cartesian    0.05
    272 z          4.453974      4.420657    -0.033317    Cartesian   -0.75
    273 x          2.226987      2.226987     0.000000    Cartesian    0.00
    273 y         -2.226987     -2.232352    -0.005365    Cartesian    0.24
    273 z         -6.680961     -6.636223     0.044737    Cartesian   -0.67
    274 x          2.226987      2.226987     0.000000    Cartesian    0.00
    274 y         -6.680961     -6.675680     0.005280    Cartesian   -0.08
    274 z         -2.226987     -2.208067     0.018919    Cartesian   -0.85
    275 x          4.453974      4.484301     0.030327    Cartesian    0.68
    275 y          4.453974      4.501721     0.047747    Cartesian    1.07
    275 z          8.907948      8.957061     0.049114    Cartesian    0.55
    276 x          8.907948      8.938483     0.030536    Cartesian    0.34
    276 y          0.000000     -0.011813    -0.011813    Cartesian    0.00
    276 z         -4.453974     -4.524705    -0.070732    Cartesian    1.59
    277 x          8.907948      8.936595     0.028647    Cartesian    0.32
    277 y         -4.453974     -4.450583     0.003391    Cartesian   -0.08
    277 z          0.000000     -0.027091    -0.027091    Cartesian    0.00
    278 x          4.453974      4.447306    -0.006668    Cartesian   -0.15
    278 y          8.907948      8.964048     0.056101    Cartesian    0.63
    278 z          4.453974      4.471502     0.017528    Cartesian    0.39
    279 x         11.134934     11.121081    -0.013853    Cartesian   -0.12
    279 y          2.226987      2.242648     0.015661    Cartesian    0.70
    279 z          2.226987      2.212780    -0.014207    Cartesian   -0.64
    280 x          6.680961      6.698803     0.017842    Cartesian    0.27
    280 y          6.680961      6.703011     0.022050    Cartesian    0.33
    280 z          6.680961      6.665599    -0.015362    Cartesian   -0.23
    281 x          6.680961      6.655572    -0.025388    Cartesian   -0.38
    281 y         -6.680961     -6.640931     0.040030    Cartesian   -0.60
    281 z          2.226987      2.241370     0.014383    Cartesian    0.65
    282 x         -2.226987     -2.226356     0.000631    Cartesian   -0.03
    282 y          2.226987      2.210682    -0.016305    Cartesian   -0.73
    282 z         -6.680961     -6.665722     0.015239    Cartesian   -0.23
    283 x          8.907948      8.930487     0.022539    Cartesian    0.25
    283 y          4.453974      4.486386     0.032413    Cartesian    0.73
    283 z         -4.453974     -4.493027    -0.039053    Cartesian    0.88
    284 x          8.907948      8.963077     0.055130    Cartesian    0.62
    284 y         -4.453974     -4.458130    -0.004156    Cartesian    0.09
    284 z          4.453974      4.434816    -0.019158    Cartesian   -0.43
    285 x         11.134934     11.142166     0.007232    Cartesian    0.06
    285 y          2.226987      2.243600     0.016613    Cartesian    0.75
    285 z         -2.226987     -2.208023     0.018963    Cartesian   -0.85
    286 x         11.134934     11.116696    -0.018238    Cartesian   -0.16
    286 y         -2.226987     -2.228278    -0.001291    Cartesian    0.06
    286 z          2.226987      2.208661    -0.018326    Cartesian   -0.82
    287 x          2.226987      2.226987     0.000000    Cartesian    0.00
    287 y          6.680961      6.650828    -0.030133    Cartesian   -0.45
    287 z         -6.680961     -6.685402    -0.004441    Cartesian    0.07
    288 x          2.226987      2.226987     0.000000    Cartesian    0.00
    288 y         -6.680961     -6.648888     0.032072    Cartesian   -0.48
    288 z          6.680961      6.701633     0.020672    Cartesian    0.31
    289 x          6.680961      6.677007    -0.003953    Cartesian   -0.06
    289 y         -2.226987     -2.208393     0.018594    Cartesian   -0.83
    289 z         -6.680961     -6.667422     0.013539    Cartesian   -0.20
    290 x          6.680961      6.694630     0.013669    Cartesian    0.20
    290 y         -6.680961     -6.669117     0.011844    Cartesian   -0.18
    290 z         -2.226987     -2.252208    -0.025221    Cartesian    1.13
    291 x          4.453974      4.477907     0.023933    Cartesian    0.54
    291 y         -4.453974     -4.482729    -0.028755    Cartesian    0.65
    291 z          8.907948      8.939253     0.031306    Cartesian    0.35
    292 x          4.453974      4.451252    -0.002721    Cartesian   -0.06
    292 y          8.907948      8.956745     0.048797    Cartesian    0.55
    292 z         -4.453974     -4.495710    -0.041737    Cartesian    0.94
    293 x          2.226987      2.226987     0.000000    Cartesian    0.00
    293 y          2.226987      2.191083    -0.035904    Cartesian   -1.61
    293 z         11.134934     11.117495    -0.017439    Cartesian   -0.16
    294 x          2.226987      2.226987     0.000000    Cartesian    0.00
    294 y         11.134934     11.126644    -0.008290    Cartesian   -0.07
    294 z          2.226987      2.252572     0.025585    Cartesian    1.15
    295 x         11.134934     11.142437     0.007502    Cartesian    0.07
    295 y         -2.226987     -2.225486     0.001501    Cartesian   -0.07
    295 z         -2.226987     -2.202852     0.024135    Cartesian   -1.08
    296 x          4.453974      4.419569    -0.034405    Cartesian   -0.77
    296 y          0.000000      0.002089     0.002089    Cartesian    0.00
    296 z         -8.907948     -8.936661    -0.028714    Cartesian    0.32
    297 x          4.453974      4.504314     0.050340    Cartesian    1.13
    297 y         -8.907948     -8.935998    -0.028051    Cartesian    0.31
    297 z          0.000000     -0.005430    -0.005430    Cartesian    0.00
    298 x          8.907948      8.941107     0.033159    Cartesian    0.37
    298 y         -4.453974     -4.477974    -0.024000    Cartesian    0.54
    298 z         -4.453974     -4.484114    -0.030140    Cartesian    0.68
    299 x          8.907948      8.976121     0.068173    Cartesian    0.77
    299 y          0.000000      0.002151     0.002151    Cartesian    0.00
    299 z          8.907948      8.902047    -0.005900    Cartesian   -0.07
    300 x          8.907948      8.918481     0.010533    Cartesian    0.12
    300 y          8.907948      8.983010     0.075062    Cartesian    0.84
    300 z          0.000000     -0.021186    -0.021186    Cartesian    0.00
    301 x          2.226987      2.226987     0.000000    Cartesian    0.00
    301 y         11.134934     11.120016    -0.014918    Cartesian   -0.13
    301 z         -2.226987     -2.255366    -0.028379    Cartesian    1.27
    302 x          2.226987      2.226987     0.000000    Cartesian    0.00
    302 y         -2.226987     -2.194813     0.032174    Cartesian   -1.44
    302 z         11.134934     11.119956    -0.014979    Cartesian   -0.13
    303 x         11.134934     11.138113     0.003179    Cartesian    0.03
    303 y          6.680961      6.649932    -0.031028    Cartesian   -0.46
    303 z          2.226987      2.240773     0.013786    Cartesian    0.62
    304 x          6.680961      6.694571     0.013610    Cartesian    0.20
    304 y         -6.680961     -6.692065    -0.011104    Cartesian    0.17
    304 z          6.680961      6.655895    -0.025066    Cartesian   -0.38
    305 x         11.134934     11.138209     0.003274    Cartesian    0.03
    305 y          2.226987      2.210380    -0.016606    Cartesian   -0.75
    305 z          6.680961      6.676849    -0.004111    Cartesian   -0.06
    306 x         -2.226987     -2.221691     0.005296    Cartesian   -0.24
    306 y          6.680961      6.707489     0.026528    Cartesian    0.40
    306 z         -6.680961     -6.658978     0.021983    Cartesian   -0.33
    307 x          4.453974      4.481790     0.027817    Cartesian    0.62
    307 y          4.453974      4.467490     0.013516    Cartesian    0.30
    307 z         -8.907948     -8.938303    -0.030355    Cartesian    0.34
    308 x          4.453974      4.441383    -0.012591    Cartesian   -0.28
    308 y         -8.907948     -8.960527    -0.052579    Cartesian    0.59
    308 z          4.453974      4.446582    -0.007392    Cartesian   -0.17
    309 x          8.907948      8.937419     0.029471    Cartesian    0.33
    309 y          4.453974      4.463441     0.009468    Cartesian    0.21
    309 z          8.907948      8.953921     0.045973    Cartesian    0.52
    310 x          8.907948      8.951389     0.043441    Cartesian    0.49
    310 y          8.907948      8.911784     0.003837    Cartesian    0.04
    310 z          4.453974      4.462078     0.008105    Cartesian    0.18
    311 x          6.680961      6.696003     0.015043    Cartesian    0.23
    311 y         11.134934     11.125507    -0.009427    Cartesian   -0.08
    311 z          2.226987      2.201279    -0.025707    Cartesian   -1.15
    312 x         -2.226987     -2.229643    -0.002656    Cartesian    0.12
    312 y          2.226987      2.254249     0.027262    Cartesian    1.22
    312 z         11.134934     11.128782    -0.006153    Cartesian   -0.06
    313 x         11.134934     11.136191     0.001257    Cartesian    0.01
    313 y          6.680961      6.665174    -0.015787    Cartesian   -0.24
    313 z         -2.226987     -2.251148    -0.024161    Cartesian    1.08
    314 x          2.226987      2.226987     0.000000    Cartesian    0.00
    314 y         -6.680961     -6.656297     0.024664    Cartesian   -0.37
    314 z         -6.680961     -6.692766    -0.011805    Cartesian    0.18
    315 x         11.134934     11.141140     0.006206    Cartesian    0.06
    315 y         -2.226987     -2.192681     0.034306    Cartesian   -1.54
    315 z          6.680961      6.694185     0.013224    Cartesian    0.20
    316 x         13.361921     13.415633     0.053712    Cartesian    0.40
    316 y          0.000000      0.001155     0.001155    Cartesian    0.00
    316 z          0.000000      0.014484     0.014484    Cartesian    0.00
    317 x          4.453974      4.459765     0.005792    Cartesian    0.13
    317 y          8.907948      8.960378     0.052430    Cartesian    0.59
    317 z          8.907948      8.928559     0.020611    Cartesian    0.23
    318 x          2.226987      2.226987     0.000000    Cartesian    0.00
    318 y          6.680961      6.706842     0.025881    Cartesian    0.39
    318 z         11.134934     11.109259    -0.025676    Cartesian   -0.23
    319 x          2.226987      2.226987     0.000000    Cartesian    0.00
    319 y         11.134934     11.153702     0.018768    Cartesian    0.17
    319 z          6.680961      6.660512    -0.020449    Cartesian   -0.31
    320 x          6.680961      6.685521     0.004560    Cartesian    0.07
    320 y         11.134934     11.147484     0.012550    Cartesian    0.11
    320 z         -2.226987     -2.214206     0.012781    Cartesian   -0.57
    321 x          6.680961      6.686164     0.005203    Cartesian    0.08
    321 y         -2.226987     -2.243907    -0.016921    Cartesian    0.76
    321 z         11.134934     11.118508    -0.016427    Cartesian   -0.15
    322 x          4.453974      4.463084     0.009110    Cartesian    0.20
    322 y         -4.453974     -4.468740    -0.014766    Cartesian    0.33
    322 z         -8.907948     -8.941587    -0.033640    Cartesian    0.38
    323 x          4.453974      4.457614     0.003640    Cartesian    0.08
    323 y         -8.907948     -8.958855    -0.050907    Cartesian    0.57
    323 z         -4.453974     -4.480876    -0.026902    Cartesian    0.60
    324 x          8.907948      8.920650     0.012703    Cartesian    0.14
    324 y         -4.453974     -4.461826    -0.007852    Cartesian    0.18
    324 z          8.907948      8.938759     0.030811    Cartesian    0.35
    325 x         13.361921     13.420160     0.058238    Cartesian    0.44
    325 y          0.000000      0.006055     0.006055    Cartesian    0.00
    325 z          4.453974      4.451133    -0.002841    Cartesian   -0.06
    326 x         13.361921     13.409080     0.047159    Cartesian    0.35
    326 y          4.453974      4.485516     0.031543    Cartesian    0.71
    326 z          0.000000     -0.009524    -0.009524    Cartesian    0.00
    327 x          8.907948      8.963994     0.056046    Cartesian    0.63
    327 y          8.907948      8.923734     0.015787    Cartesian    0.18
    327 z         -4.453974     -4.481085    -0.027111    Cartesian    0.61
    328 x         11.134934     11.132315    -0.002619    Cartesian   -0.02
    328 y          2.226987      2.214083    -0.012904    Cartesian   -0.58
    328 z         -6.680961     -6.691968    -0.011007    Cartesian    0.16
    329 x         11.134934     11.138541     0.003607    Cartesian    0.03
    329 y          6.680961      6.703697     0.022736    Cartesian    0.34
    329 z          6.680961      6.661296    -0.019665    Cartesian   -0.29
    330 x         11.134934     11.147978     0.013044    Cartesian    0.12
    330 y         -6.680961     -6.654300     0.026661    Cartesian   -0.40
    330 z          2.226987      2.249603     0.022616    Cartesian    1.02
    331 x          6.680961      6.681938     0.000977    Cartesian    0.01
    331 y         -6.680961     -6.699201    -0.018240    Cartesian    0.27
    331 z         -6.680961     -6.663140     0.017820    Cartesian   -0.27

  Time to end of optimisation  =      169.9300 seconds

  Timing analysis for GULP :

  Task / Subroutine                                          Time (Seconds)
  Calculation of reciprocal space energy and derivatives          0.0007
  Calculation of reciprocal space energy using symmetry           0.0010
  Calculation of real space energy and derivatives                0.0041
  Calculation of real space energy using symmetry                 0.0095
  Calculation for region 1 energy and derivatives (2-b)          99.3368
  Calculation for region 2a energy                               62.1611
  Calculation for region 2b energy                                0.0306
  Calculation and manipulation of Hessian matrix                  0.2718
  Calculation of matrix inversion                                 7.4028
  Symmetry generation of equivalent positions                     0.0065

  Dump file written as Na3OCl.grs

  Job Finished at 17:32.41  1st March      2021