  Job Started  at 17:07.10  1st March      2021

  Number of CPUs =     1

  Total number of configurations input =      1

*  Input for Configuration =   1                                               *

  Formula = ONa2

  Number of irreducible atoms/shells =       3

  Total number atoms/shells =       4

  Dimensionality = 3               :  Bulk

  Symmetry :

  Crystal family                   :  Cubic
  Crystal class  (Groth - 1921)    :  Cubic Hexakisoctahedral

  Space group (centrosymmetric)    :  F M 3 M

  Patterson group                  :  F m -3 m

  Cartesian lattice vectors (Angstroms) :

        0.000000    2.775000    2.775000
        2.775000    0.000000    2.775000
        2.775000    2.775000    0.000000

  Primitive cell parameters :            Full cell parameters :

  a =   3.9244    alpha =  60.0000       a =   5.5500    alpha =  90.0000
  b =   3.9244    beta  =  60.0000       b =   5.5500    beta  =  90.0000
  c =   3.9244    gamma =  60.0000       c =   5.5500    gamma =  90.0000

  Initial volumes (Angstroms**3):

  Primitive cell =          42.738469    Full cell =         170.953875

  Temperature of configuration =   0.00     K

  Pressure of configuration =         0.000 GPa

  Fractional coordinates of asymmetric unit :

   No.  Atomic       x           y          z         Charge      Occupancy
        Label      (Frac)      (Frac)     (Frac)        (e)         (Frac)
      1 O     c    0.000000    0.000000    0.000000     1.44300    1.000000
      2 Na    c    0.250000    0.250000    0.250000     1.00000    1.000000
      3 O     s    0.000000    0.000000    0.000000    -3.44300    1.000000

  Constraints :

  Constraint no.      Unconstrained     Constrained    Coefficient    Offset
                         Variable         Variable
           1              Strain 1        Strain 2       1.00000      0.0000
           2              Strain 1        Strain 3       1.00000      0.0000

*  General input information                                                   *

  Species output for all configurations :

  Species    Type    Atomic    Atomic    Charge       Radii (Angs)     Library
                     Number     Mass       (e)     Cova   Ionic  VDW   Symbol
    Na       Core       11      22.99   1.000000   0.970  0.000  2.300
    O        Core        8      16.00   1.443000   0.730  0.000  1.360
    O        Shell       8       0.00  -3.443000   0.730  0.000  1.360
    Cl       Core       17      35.45   0.996000   0.990  0.000  0.000
    Cl       Shell      17       0.00  -1.996000   0.990  0.000  0.000

  Lattice summation method               =    Ewald          (3-D)
                                         =    Parry          (2-D)
                                         =    Saunders et al (1-D)
  Accuracy factor for lattice sums       =   12.000

  Analytic derivatives to be used

  Time limit = Infinity

  Maximum range for interatomic potentials =    100000.000000 Angstroms

  General interatomic potentials :

Atom  Types   Potential      Parameter       Value         Units   Cutoffs(Ang)
  1     2                                                            Min /  Max
O    c O    s Spring (c-s)  Spring k 2       20.486200    eV*Ang^-2 0.000  0.800
                            Spring k 4       0.0000000    eV*Ang^-4
Cl   c Cl   s Spring (c-s)  Spring k 2       10.001500    eV*Ang^-2 0.000  0.800
                            Spring k 4       0.0000000    eV*Ang^-4
Na   c Na   c Buckingham    Buckingham A     29281.710    eV        0.000 12.000
                            Buckingham rho  0.37200000E-01Ang
                            Buckingham C     0.0000000    eV*Ang^6
Na   c O    s Buckingham    Buckingham A     602.40000    eV        0.000 12.000
                            Buckingham rho  0.34280000    Ang
                            Buckingham C     0.0000000    eV*Ang^6
Na   c Cl   s Buckingham    Buckingham A     3515.6900    eV        0.000 12.000
                            Buckingham rho  0.27460000    Ang
                            Buckingham C     0.0000000    eV*Ang^6
O    s O    s Buckingham    Buckingham A     25201.690    eV        0.000 12.000
                            Buckingham rho  0.16450000    Ang
                            Buckingham C     13.190000    eV*Ang^6
O    s Cl   s Buckingham    Buckingham A     1105.8600    eV        0.000 12.000
                            Buckingham rho  0.31330000    Ang
                            Buckingham C     62.200000    eV*Ang^6
Cl   s Cl   s Buckingham    Buckingham A     31408.750    eV        0.000 12.000
                            Buckingham rho  0.13660000    Ang
                            Buckingham C     14.530000    eV*Ang^6

*  Output for configuration   1                                                *

  Components of energy :

  Interatomic potentials     =           4.34435381 eV
  Monopole - monopole (real) =          -4.11652523 eV
  Monopole - monopole (recip)=         -26.07516340 eV
  Monopole - monopole (total)=         -30.19168863 eV
  Total lattice energy :
    Primitive unit cell      =         -25.84733481 eV
    Non-primitive unit cell  =        -103.38933925 eV
  Total lattice energy (in kJmol-1):
    Primitive unit cell      =           -2493.8727 kJ/(mole unit cells)
    Non-primitive unit cell  =           -9975.4908 kJ/(mole unit cells)

  Number of variables =        1

  Maximum number of calculations  =          1000
  Maximum Hessian update interval =            10
  Maximum step size               =   1.000000000
  Maximum parameter tolerance     =   0.000010000
  Maximum function  tolerance     =   0.000010000
  Maximum gradient  tolerance     =   0.001000000
  Maximum gradient  component     =   0.010000000

  Symmetry constrained optimisation

  Symmetry used for second derivatives

  Cell parameters to be optimised using strains

  Newton-Raphson optimiser to be used

  BFGS hessian update to be used

  Lower half triangular hessian to be used

  Start of bulk optimisation :

  ** Hessian calculated **

  **** Optimisation achieved ****

  Final energy =     -25.84793559 eV
  Final Gnorm  =       0.00000000

  Components of energy :

  Interatomic potentials     =           4.25957053 eV
  Monopole - monopole (real) =          -4.10504726 eV
  Monopole - monopole (recip)=         -26.00245887 eV
  Monopole - monopole (total)=         -30.10750613 eV
  Total lattice energy :
    Primitive unit cell      =         -25.84793559 eV
    Non-primitive unit cell  =        -103.39174238 eV
  Total lattice energy (in kJmol-1):
    Primitive unit cell      =           -2493.9307 kJ/(mole unit cells)
    Non-primitive unit cell  =           -9975.7227 kJ/(mole unit cells)

  Final asymmetric unit coordinates :

   No.  Atomic        x           y           z         Radius
        Label       (Frac)      (Frac)      (Frac)       (Angs)
     1  O     c     0.000000    0.000000    0.000000    0.000000
     2  Na    c     0.250000    0.250000    0.250000    0.000000
     3  O     s     0.000000    0.000000    0.000000    0.000000

  Final Cartesian lattice vectors (Angstroms) :

        0.000000    2.782759    2.782759
        2.782759    0.000000    2.782759
        2.782759    2.782759    0.000000

  Final cell parameters and derivatives :

       a            3.935416 Angstrom     dE/de1(xx)     0.000000 eV/strain
       b            3.935416 Angstrom     dE/de2(yy)     0.000000 eV/strain
       c            3.935416 Angstrom     dE/de3(zz)     0.000000 eV/strain
       alpha       60.000000 Degrees      dE/de4(yz)     0.000000 eV/strain
       beta        60.000000 Degrees      dE/de5(xz)     0.000000 eV/strain
       gamma       60.000000 Degrees      dE/de6(xy)     0.000000 eV/strain

  Primitive cell volume =            43.097970 Angs**3

  Density of cell =      2.388090 g/cm**3

  Non-primitive lattice parameters :

  a    =     5.565518  b   =     5.565518  c    =     5.565518
  alpha=    90.000000  beta=    90.000000  gamma=    90.000000

  Non-primitive cell volume =           172.391882 Angs**3

  Final internal derivatives :

   No.  Atomic          a             b             c           Radius
        Label          (eV)          (eV)          (eV)        (eV/Angs)
      1 O     c       0.000000      0.000000      0.000000      0.000000
      2 Na    c       0.000000      0.000000      0.000000      0.000000
      3 O     s       0.000000      0.000000      0.000000      0.000000
  Maximum abs         0.000000      0.000000      0.000000      0.000000

  Comparison of initial and final structures :

  Parameter   Initial value   Final value   Difference    Units      Percent
    Volume       170.953875    172.391882     1.438007    Angs**3      0.84
    a              5.550000      5.565518     0.015518    Angstroms    0.28
    b              5.550000      5.565518     0.015518    Angstroms    0.28
    c              5.550000      5.565518     0.015518    Angstroms    0.28
    alpha         90.000000     90.000000     0.000000    Degrees      0.00
    beta          90.000000     90.000000     0.000000    Degrees      0.00
    gamma         90.000000     90.000000     0.000000    Degrees      0.00
      1 x          0.000000      0.000000     0.000000    Fractional   0.00
      1 y          0.000000      0.000000     0.000000    Fractional   0.00
      1 z          0.000000      0.000000     0.000000    Fractional   0.00
      2 x          0.250000      0.250000     0.000000    Fractional   0.00
      2 y          0.250000      0.250000     0.000000    Fractional   0.00
      2 z          0.250000      0.250000     0.000000    Fractional   0.00
      3 x          0.000000      0.000000     0.000000    Fractional   0.00
      3 y          0.000000      0.000000     0.000000    Fractional   0.00
      3 z          0.000000      0.000000     0.000000    Fractional   0.00

  Born effective charge tensors :

  Atom             x           y             z
    1 O     x      -2.2548     -0.0000      0.0000
            y      -0.0000     -2.2548     -0.0000
            z       0.0000     -0.0000     -2.2548
    2 Na    x       1.1274     -0.0000     -0.0000
            y      -0.0000      1.1274     -0.0000
            z      -0.0000     -0.0000      1.1274

  Elastic Constant Matrix: (Units=GPa)

  Indices      1         2         3         4         5         6
       1    123.4880   33.2376   33.2376   -0.0000   -0.0000   -0.0000
       2     33.2376  123.4880   33.2376   -0.0000   -0.0000   -0.0000
       3     33.2376   33.2376  123.4880   -0.0000   -0.0000   -0.0000
       4     -0.0000   -0.0000   -0.0000   33.1509   -0.0000   -0.0000
       5     -0.0000   -0.0000   -0.0000   -0.0000   33.1509   -0.0000
       6     -0.0000   -0.0000   -0.0000   -0.0000   -0.0000   33.1509

  Elastic Compliance Matrix: (Units=1/GPa)

  Indices      1         2         3         4         5         6
       1    0.009142 -0.001939 -0.001939  0.000000  0.000000  0.000000
       2   -0.001939  0.009142 -0.001939  0.000000  0.000000  0.000000
       3   -0.001939 -0.001939  0.009142  0.000000  0.000000  0.000000
       4    0.000000  0.000000  0.000000  0.030165  0.000000  0.000000
       5    0.000000  0.000000  0.000000  0.000000  0.030165  0.000000
       6    0.000000  0.000000  0.000000  0.000000  0.000000  0.030165

  Mechanical properties :

  Convention :                    Reuss         Voigt         Hill
  Bulk  Modulus (GPa)     =      63.32103      63.32103      63.32103
  Shear Modulus (GPa)     =      37.08746      37.94062      37.51404
  Velocity S-wave (km/s)  =       3.94083       3.98590       3.96343
  Velocity P-wave (km/s)  =       6.87184       6.90642       6.88915
  Compressibility (1/GPa) =    0.01579254
  Stress axis :                     x             y             z
  Youngs Moduli (GPa)     =     109.39027     109.39027     109.39027
  Poissons Ratio (x)      =                     0.21207       0.21207
  Poissons Ratio (y)      =       0.21207                     0.21207
  Poissons Ratio (z)      =       0.21207       0.21207

  Piezoelectric Strain Matrix: (Units=C/m**2)

  Indices      1         2         3         4         5         6
       x    -0.00000  -0.00000  -0.00000  -0.00000  -0.00000  -0.00000
       y    -0.00000   0.00000  -0.00000  -0.00000  -0.00000  -0.00000
       z    -0.00000  -0.00000  -0.00000  -0.00000  -0.00000  -0.00000

  Piezoelectric Stress Matrix: (Units=10**-11 C/N)

  Indices      1         2         3         4         5         6
       x     0.00000  -0.00000  -0.00000  -0.00000  -0.00000  -0.00000
       y    -0.00000   0.00000  -0.00000  -0.00000  -0.00000  -0.00000
       z    -0.00000  -0.00000   0.00000  -0.00000  -0.00000  -0.00000

  Static dielectric constant tensor :

              x         y         z
       x    11.97759   0.00000   0.00000
       y     0.00000  11.97759   0.00000
       z     0.00000   0.00000  11.97759

  High frequency dielectric constant tensor :

              x         y         z
       x     4.95001   0.00000  -0.00000
       y     0.00000   4.95001   0.00000
       z    -0.00000   0.00000   4.95001

  Static refractive indices :

    1 =    3.46087      2 =    3.46087      3 =    3.46087

  High frequency refractive indices :

    1 =    2.22486      2 =    2.22486      3 =    2.22486

  Time to end of optimisation =       0.0095 seconds

*  Defect calculation for configuration   1 :                                  *

  **** No defects for configuration number    1 ****

  Timing analysis for GULP :

  Task / Subroutine                                          Time (Seconds)
  Calculation of reciprocal space energy and derivatives          0.0001
  Calculation of reciprocal space energy using symmetry           0.0002
  Calculation of real space energy and derivatives                0.0011
  Calculation of real space energy using symmetry                 0.0038
  Symmetry generation of equivalent positions                     0.0014

  Dump file written as Na3OCl.grs

  Job Finished at 17:07.10  1st March      2021