  Job Started  at 17:07.10  1st March      2021

  Number of CPUs =     1

  Total number of configurations input =      1

*  Input for Configuration =   1 : NaCl                                        *

  Formula = NaCl

  Number of irreducible atoms/shells =       3

  Total number atoms/shells =       3

  Dimensionality = 3               :  Bulk

  Symmetry :

  Crystal family                   :  Cubic
  Crystal class  (Groth - 1921)    :  Cubic Hexakisoctahedral

  Space group (centrosymmetric)    :  F M 3 M

  Patterson group                  :  F m -3 m

  Cartesian lattice vectors (Angstroms) :

        0.000000    2.789000    2.789000
        2.789000    0.000000    2.789000
        2.789000    2.789000    0.000000

  Primitive cell parameters :            Full cell parameters :

  a =   3.9442    alpha =  60.0000       a =   5.5780    alpha =  90.0000
  b =   3.9442    beta  =  60.0000       b =   5.5780    beta  =  90.0000
  c =   3.9442    gamma =  60.0000       c =   5.5780    gamma =  90.0000

  Initial volumes (Angstroms**3):

  Primitive cell =          43.388590    Full cell =         173.554361

  Temperature of configuration =   0.00     K

  Pressure of configuration =         0.000 GPa

  Fractional coordinates of asymmetric unit :

   No.  Atomic       x           y          z         Charge      Occupancy
        Label      (Frac)      (Frac)     (Frac)        (e)         (Frac)
      1 Na    c    0.000000    0.000000    0.000000     1.00000    1.000000
      2 Cl    c    0.500000    0.000000    0.000000     0.99600    1.000000
      3 Cl    s    0.500000    0.000000    0.000000    -1.99600    1.000000

  Constraints :

  Constraint no.      Unconstrained     Constrained    Coefficient    Offset
                         Variable         Variable
           1              Strain 1        Strain 2       1.00000      0.0000
           2              Strain 1        Strain 3       1.00000      0.0000

*  General input information                                                   *

  Species output for all configurations :

  Species    Type    Atomic    Atomic    Charge       Radii (Angs)     Library
                     Number     Mass       (e)     Cova   Ionic  VDW   Symbol
    Na       Core       11      22.99   1.000000   0.970  0.000  2.300
    O        Core        8      16.00   1.443000   0.730  0.000  0.000
    O        Shell       8       0.00  -3.443000   0.730  0.000  0.000
    Cl       Core       17      35.45   0.996000   0.990  0.000  1.650
    Cl       Shell      17       0.00  -1.996000   0.990  0.000  1.650

  Lattice summation method               =    Ewald          (3-D)
                                         =    Parry          (2-D)
                                         =    Saunders et al (1-D)
  Accuracy factor for lattice sums       =   12.000

  Analytic derivatives to be used

  Time limit = Infinity

  Maximum range for interatomic potentials =    100000.000000 Angstroms

  General interatomic potentials :

Atom  Types   Potential      Parameter       Value         Units   Cutoffs(Ang)
  1     2                                                            Min /  Max
O    c O    s Spring (c-s)  Spring k 2       20.486200    eV*Ang^-2 0.000  0.800
                            Spring k 4       0.0000000    eV*Ang^-4
Cl   c Cl   s Spring (c-s)  Spring k 2       10.001500    eV*Ang^-2 0.000  0.800
                            Spring k 4       0.0000000    eV*Ang^-4
Na   c Na   c Buckingham    Buckingham A     29281.710    eV        0.000 12.000
                            Buckingham rho  0.37200000E-01Ang
                            Buckingham C     0.0000000    eV*Ang^6
Na   c O    s Buckingham    Buckingham A     602.40000    eV        0.000 12.000
                            Buckingham rho  0.34280000    Ang
                            Buckingham C     0.0000000    eV*Ang^6
Na   c Cl   s Buckingham    Buckingham A     3515.6900    eV        0.000 12.000
                            Buckingham rho  0.27460000    Ang
                            Buckingham C     0.0000000    eV*Ang^6
O    s O    s Buckingham    Buckingham A     25201.690    eV        0.000 12.000
                            Buckingham rho  0.16450000    Ang
                            Buckingham C     13.190000    eV*Ang^6
O    s Cl   s Buckingham    Buckingham A     1105.8600    eV        0.000 12.000
                            Buckingham rho  0.31330000    Ang
                            Buckingham C     62.200000    eV*Ang^6
Cl   s Cl   s Buckingham    Buckingham A     31408.750    eV        0.000 12.000
                            Buckingham rho  0.13660000    Ang
                            Buckingham C     14.530000    eV*Ang^6

*  Output for configuration   1 : NaCl                                         *

  Components of energy :

  Interatomic potentials     =           0.79200854 eV
  Monopole - monopole (real) =          -0.81974431 eV
  Monopole - monopole (recip)=          -8.20302656 eV
  Monopole - monopole (total)=          -9.02277087 eV
  Total lattice energy :
    Primitive unit cell      =          -8.23076233 eV
    Non-primitive unit cell  =         -32.92304931 eV
  Total lattice energy (in kJmol-1):
    Primitive unit cell      =            -794.1427 kJ/(mole unit cells)
    Non-primitive unit cell  =           -3176.5710 kJ/(mole unit cells)

  Number of variables =        1

  Maximum number of calculations  =          1000
  Maximum Hessian update interval =            10
  Maximum step size               =   1.000000000
  Maximum parameter tolerance     =   0.000010000
  Maximum function  tolerance     =   0.000010000
  Maximum gradient  tolerance     =   0.001000000
  Maximum gradient  component     =   0.010000000

  Symmetry constrained optimisation

  Symmetry used for second derivatives

  Cell parameters to be optimised using strains

  Newton-Raphson optimiser to be used

  BFGS hessian update to be used

  Lower half triangular hessian to be used

  Start of bulk optimisation :

  ** Hessian calculated **

  **** Optimisation achieved ****

  Final energy =      -8.23612458 eV
  Final Gnorm  =       0.00041529

  Components of energy :

  Interatomic potentials     =           0.89785397 eV
  Monopole - monopole (real) =          -0.82984784 eV
  Monopole - monopole (recip)=          -8.30413070 eV
  Monopole - monopole (total)=          -9.13397854 eV
  Total lattice energy :
    Primitive unit cell      =          -8.23612458 eV
    Non-primitive unit cell  =         -32.94449830 eV
  Total lattice energy (in kJmol-1):
    Primitive unit cell      =            -794.6601 kJ/(mole unit cells)
    Non-primitive unit cell  =           -3178.6405 kJ/(mole unit cells)

  Final asymmetric unit coordinates :

   No.  Atomic        x           y           z         Radius
        Label       (Frac)      (Frac)      (Frac)       (Angs)
     1  Na    c     0.000000    0.000000    0.000000    0.000000
     2  Cl    c     0.500000    0.000000    0.000000    0.000000
     3  Cl    s     0.500000    0.000000    0.000000    0.000000

  Final Cartesian lattice vectors (Angstroms) :

        0.000000    2.755043    2.755043
        2.755043    0.000000    2.755043
        2.755043    2.755043    0.000000

  Final cell parameters and derivatives :

       a            3.896220 Angstrom     dE/de1(xx)     0.000415 eV/strain
       b            3.896220 Angstrom     dE/de2(yy)     0.000000 eV/strain
       c            3.896220 Angstrom     dE/de3(zz)     0.000000 eV/strain
       alpha       60.000000 Degrees      dE/de4(yz)     0.000000 eV/strain
       beta        60.000000 Degrees      dE/de5(xz)     0.000000 eV/strain
       gamma       60.000000 Degrees      dE/de6(xy)     0.000000 eV/strain

  Primitive cell volume =            41.823017 Angs**3

  Density of cell =      2.320336 g/cm**3

  Non-primitive lattice parameters :

  a    =     5.510087  b   =     5.510087  c    =     5.510087
  alpha=    90.000000  beta=    90.000000  gamma=    90.000000

  Non-primitive cell volume =           167.292070 Angs**3

  Final internal derivatives :

   No.  Atomic          a             b             c           Radius
        Label          (eV)          (eV)          (eV)        (eV/Angs)
      1 Na    c       0.000000      0.000000      0.000000      0.000000
      2 Cl    c       0.000000      0.000000      0.000000      0.000000
      3 Cl    s       0.000000      0.000000      0.000000      0.000000
  Maximum abs         0.000000      0.000000      0.000000      0.000000

  Born effective charge tensors :

  Atom             x           y             z
    1 Na    x       0.8930     -0.0000      0.0000
            y      -0.0000      0.8930     -0.0000
            z       0.0000     -0.0000      0.8930
    2 Cl    x      -0.8930      0.0000     -0.0000
            y       0.0000     -0.8930      0.0000
            z      -0.0000      0.0000     -0.8930

  Elastic Constant Matrix: (Units=GPa)

  Indices      1         2         3         4         5         6
       1     67.2914   13.6107   13.6107    0.0000    0.0000   -0.0000
       2     13.6107   67.2914   13.6107   -0.0000   -0.0000   -0.0000
       3     13.6107   13.6107   67.2914   -0.0000    0.0000   -0.0000
       4      0.0000   -0.0000   -0.0000   13.6112    0.0000   -0.0000
       5      0.0000   -0.0000    0.0000    0.0000   13.6112   -0.0000
       6     -0.0000   -0.0000   -0.0000   -0.0000   -0.0000   13.6112

  Elastic Compliance Matrix: (Units=1/GPa)

  Indices      1         2         3         4         5         6
       1    0.015946 -0.002683 -0.002683 -0.000000 -0.000000  0.000000
       2   -0.002683  0.015946 -0.002683  0.000000  0.000000  0.000000
       3   -0.002683 -0.002683  0.015946  0.000000 -0.000000  0.000000
       4   -0.000000  0.000000  0.000000  0.073469 -0.000000  0.000000
       5   -0.000000  0.000000 -0.000000 -0.000000  0.073469  0.000000
       6    0.000000  0.000000  0.000000  0.000000  0.000000  0.073469

  Mechanical properties :

  Convention :                    Reuss         Voigt         Hill
  Bulk  Modulus (GPa)     =      31.50427      31.50427      31.50427
  Shear Modulus (GPa)     =      16.95370      18.90288      17.92829
  Velocity S-wave (km/s)  =       2.70307       2.85423       2.77967
  Velocity P-wave (km/s)  =       4.82903       4.94364       4.88667
  Compressibility (1/GPa) =    0.03174173
  Stress axis :                     x             y             z
  Youngs Moduli (GPa)     =      62.71177      62.71177      62.71177
  Poissons Ratio (x)      =                     0.16824       0.16824
  Poissons Ratio (y)      =       0.16824                     0.16824
  Poissons Ratio (z)      =       0.16824       0.16824

  Piezoelectric Strain Matrix: (Units=C/m**2)

  Indices      1         2         3         4         5         6
       x    -0.00000   0.00000   0.00000   0.00000   0.00000   0.00000
       y     0.00000   0.00000   0.00000   0.00000   0.00000   0.00000
       z     0.00000   0.00000  -0.00000   0.00000   0.00000   0.00000

  Piezoelectric Stress Matrix: (Units=10**-11 C/N)

  Indices      1         2         3         4         5         6
       x    -0.00000   0.00000   0.00000   0.00000   0.00000   0.00000
       y     0.00000  -0.00000   0.00000   0.00000   0.00000   0.00000
       z     0.00000   0.00000  -0.00000   0.00000   0.00000   0.00000

  Static dielectric constant tensor :

              x         y         z
       x     5.18315  -0.00000   0.00000
       y    -0.00000   5.18315  -0.00000
       z     0.00000  -0.00000   5.18315

  High frequency dielectric constant tensor :

              x         y         z
       x     3.28654  -0.00000   0.00000
       y    -0.00000   3.28654  -0.00000
       z     0.00000  -0.00000   3.28654

  Static refractive indices :

    1 =    2.27665      2 =    2.27665      3 =    2.27665

  High frequency refractive indices :

    1 =    1.81288      2 =    1.81288      3 =    1.81288

  Time to end of optimisation =       0.0078 seconds

*  Defect calculation for configuration   1 :                                  *

  **** No defects for configuration number    1 ****

  Timing analysis for GULP :

  Task / Subroutine                                          Time (Seconds)
  Calculation of reciprocal space energy using symmetry           0.0001
  Calculation of real space energy and derivatives                0.0006
  Calculation of real space energy using symmetry                 0.0029
  Symmetry generation of equivalent positions                     0.0014

  Dump file written as Na3OCl.grs

  Job Finished at 17:07.10  1st March      2021