  Job Started  at 17:07.11  1st March      2021

  Number of CPUs =     1

  Total number of configurations input =      1

*  Input for Configuration =   1                                               *

  Formula = ClONa3

  Number of irreducible atoms/shells =       5

  Total number atoms/shells =       7

  Dimensionality = 3               :  Bulk

  Symmetry :

  Crystal family                   :  Cubic
  Crystal class  (Groth - 1921)    :  Cubic Hexakisoctahedral

  Space group (centrosymmetric)    :  P M 3 M

  Patterson group                  :  P m -3 m

  Cartesian lattice vectors (Angstroms) :

        4.504000    0.000000    0.000000
        0.000000    4.504000    0.000000
        0.000000    0.000000    4.504000

  Cell parameters (Angstroms/Degrees):

  a =       4.5040    alpha =  90.0000
  b =       4.5040    beta  =  90.0000
  c =       4.5040    gamma =  90.0000

  Initial cell volume =          91.368216 Angs**3

  Temperature of configuration =   0.00     K

  Pressure of configuration =         0.000 GPa

  Fractional coordinates of asymmetric unit :

   No.  Atomic       x           y          z         Charge      Occupancy
        Label      (Frac)      (Frac)     (Frac)        (e)         (Frac)
      1 Cl    c    0.000000    0.000000    0.000000     0.99600    1.000000
      2 O     c    0.500000    0.500000    0.500000     1.44300    1.000000
      3 Na    c    0.500000    0.500000    0.000000     1.00000    1.000000
      4 Cl    s    0.000000    0.000000    0.000000    -1.99600    1.000000
      5 O     s    0.500000    0.500000    0.500000    -3.44300    1.000000

  Constraints :

  Constraint no.      Unconstrained     Constrained    Coefficient    Offset
                         Variable         Variable
           1              Strain 1        Strain 2       1.00000      0.0000
           2              Strain 1        Strain 3       1.00000      0.0000

*  General input information                                                   *

  Species output for all configurations :

  Species    Type    Atomic    Atomic    Charge       Radii (Angs)     Library
                     Number     Mass       (e)     Cova   Ionic  VDW   Symbol
    Na       Core       11      22.99   1.000000   0.970  0.000  2.300
    O        Core        8      16.00   1.443000   0.730  0.000  1.360
    O        Shell       8       0.00  -3.443000   0.730  0.000  1.360
    Cl       Core       17      35.45   0.996000   0.990  0.000  1.650
    Cl       Shell      17       0.00  -1.996000   0.990  0.000  1.650

  Lattice summation method               =    Ewald          (3-D)
                                         =    Parry          (2-D)
                                         =    Saunders et al (1-D)
  Accuracy factor for lattice sums       =   12.000

  Analytic derivatives to be used

  Time limit = Infinity

  Maximum range for interatomic potentials =    100000.000000 Angstroms

  General interatomic potentials :

Atom  Types   Potential      Parameter       Value         Units   Cutoffs(Ang)
  1     2                                                            Min /  Max
O    c O    s Spring (c-s)  Spring k 2       20.486200    eV*Ang^-2 0.000  0.800
                            Spring k 4       0.0000000    eV*Ang^-4
Cl   c Cl   s Spring (c-s)  Spring k 2       10.001500    eV*Ang^-2 0.000  0.800
                            Spring k 4       0.0000000    eV*Ang^-4
Na   c Na   c Buckingham    Buckingham A     29281.710    eV        0.000 12.000
                            Buckingham rho  0.37200000E-01Ang
                            Buckingham C     0.0000000    eV*Ang^6
Na   c O    s Buckingham    Buckingham A     602.40000    eV        0.000 12.000
                            Buckingham rho  0.34280000    Ang
                            Buckingham C     0.0000000    eV*Ang^6
Na   c Cl   s Buckingham    Buckingham A     3515.6900    eV        0.000 12.000
                            Buckingham rho  0.27460000    Ang
                            Buckingham C     0.0000000    eV*Ang^6
O    s O    s Buckingham    Buckingham A     25201.690    eV        0.000 12.000
                            Buckingham rho  0.16450000    Ang
                            Buckingham C     13.190000    eV*Ang^6
O    s Cl   s Buckingham    Buckingham A     1105.8600    eV        0.000 12.000
                            Buckingham rho  0.31330000    Ang
                            Buckingham C     62.200000    eV*Ang^6
Cl   s Cl   s Buckingham    Buckingham A     31408.750    eV        0.000 12.000
                            Buckingham rho  0.13660000    Ang
                            Buckingham C     14.530000    eV*Ang^6

*  Output for configuration   1                                                *

  Components of energy :

  Interatomic potentials     =           5.33200327 eV
  Monopole - monopole (real) =         -10.03624526 eV
  Monopole - monopole (recip)=         -29.53581274 eV
  Monopole - monopole (total)=         -39.57205800 eV
  Total lattice energy       =         -34.24005473 eV
  Total lattice energy       =           -3303.6419 kJ/(mole unit cells)

  Number of variables =        1

  Maximum number of calculations  =          1000
  Maximum Hessian update interval =            10
  Maximum step size               =   1.000000000
  Maximum parameter tolerance     =   0.000010000
  Maximum function  tolerance     =   0.000010000
  Maximum gradient  tolerance     =   0.001000000
  Maximum gradient  component     =   0.010000000

  Symmetry constrained optimisation

  Symmetry used for second derivatives

  Cell parameters to be optimised using strains

  Newton-Raphson optimiser to be used

  BFGS hessian update to be used

  Lower half triangular hessian to be used

  Start of bulk optimisation :

  ** Hessian calculated **

  **** Optimisation achieved ****

  Final energy =     -34.25274716 eV
  Final Gnorm  =       0.00056121

  Components of energy :

  Interatomic potentials     =           5.76377683 eV
  Monopole - monopole (real) =         -10.14897050 eV
  Monopole - monopole (recip)=         -29.86755349 eV
  Monopole - monopole (total)=         -40.01652399 eV
  Total lattice energy       =         -34.25274716 eV
  Total lattice energy       =           -3304.8665 kJ/(mole unit cells)

  Final asymmetric unit coordinates :

   No.  Atomic        x           y           z         Radius
        Label       (Frac)      (Frac)      (Frac)       (Angs)
     1  Cl    c     0.000000    0.000000    0.000000    0.000000
     2  O     c     0.500000    0.500000    0.500000    0.000000
     3  Na    c     0.500000    0.500000    0.000000    0.000000
     4  Cl    s     0.000000    0.000000    0.000000    0.000000
     5  O     s     0.500000    0.500000    0.500000    0.000000

  Final Cartesian lattice vectors (Angstroms) :

        4.453974    0.000000    0.000000
        0.000000    4.453974    0.000000
        0.000000    0.000000    4.453974

  Final cell parameters and derivatives :

       a            4.453974 Angstrom     dE/de1(xx)     0.000561 eV/strain
       b            4.453974 Angstrom     dE/de2(yy)     0.000000 eV/strain
       c            4.453974 Angstrom     dE/de3(zz)     0.000000 eV/strain
       alpha       90.000000 Degrees      dE/de4(yz)     0.000000 eV/strain
       beta        90.000000 Degrees      dE/de5(xz)     0.000000 eV/strain
       gamma       90.000000 Degrees      dE/de6(xy)     0.000000 eV/strain

  Primitive cell volume =            88.357409 Angs**3

  Density of cell =      2.263141 g/cm**3

  Non-primitive cell volume =            88.357409 Angs**3

  Final internal derivatives :

   No.  Atomic          a             b             c           Radius
        Label          (eV)          (eV)          (eV)        (eV/Angs)
      1 Cl    c       0.000000      0.000000      0.000000      0.000000
      2 O     c       0.000000      0.000000      0.000000      0.000000
      3 Na    c       0.000000      0.000000      0.000000      0.000000
      4 Cl    s       0.000000      0.000000      0.000000      0.000000
      5 O     s       0.000000      0.000000      0.000000      0.000000
  Maximum abs         0.000000      0.000000      0.000000      0.000000

  Comparison of initial and final structures :

  Parameter   Initial value   Final value   Difference    Units      Percent
    Volume        91.368216     88.357409    -3.010807    Angs**3     -3.30
    a              4.504000      4.453974    -0.050026    Angstroms   -1.11
    b              4.504000      4.453974    -0.050026    Angstroms   -1.11
    c              4.504000      4.453974    -0.050026    Angstroms   -1.11
    alpha         90.000000     90.000000     0.000000    Degrees      0.00
    beta          90.000000     90.000000     0.000000    Degrees      0.00
    gamma         90.000000     90.000000     0.000000    Degrees      0.00
      1 x          0.000000      0.000000     0.000000    Fractional   0.00
      1 y          0.000000      0.000000     0.000000    Fractional   0.00
      1 z          0.000000      0.000000     0.000000    Fractional   0.00
      2 x          0.500000      0.500000     0.000000    Fractional   0.00
      2 y          0.500000      0.500000     0.000000    Fractional   0.00
      2 z          0.500000      0.500000     0.000000    Fractional   0.00
      3 x          0.500000      0.500000     0.000000    Fractional   0.00
      3 y          0.500000      0.500000     0.000000    Fractional   0.00
      3 z          0.000000      0.000000     0.000000    Fractional   0.00
      4 x          0.000000      0.000000     0.000000    Fractional   0.00
      4 y          0.000000      0.000000     0.000000    Fractional   0.00
      4 z          0.000000      0.000000     0.000000    Fractional   0.00
      5 x          0.500000      0.500000     0.000000    Fractional   0.00
      5 y          0.500000      0.500000     0.000000    Fractional   0.00
      5 z          0.500000      0.500000     0.000000    Fractional   0.00

  Born effective charge tensors :

  Atom             x           y             z
    1 Cl    x      -1.4271      0.0000      0.0000
            y       0.0000     -1.4271      0.0000
            z       0.0000      0.0000     -1.4271
    2 O     x      -1.6137     -0.0000     -0.0000
            y      -0.0000     -1.6137     -0.0000
            z      -0.0000     -0.0000     -1.6137
    3 Na    x       0.8295     -0.0000     -0.0000
            y      -0.0000      0.8295      0.0000
            z      -0.0000      0.0000      1.3817

  Elastic Constant Matrix: (Units=GPa)

  Indices      1         2         3         4         5         6
       1     82.8226   21.5342   21.5342    0.0000   -0.0000   -0.0000
       2     21.5342   82.8226   21.5342   -0.0000    0.0000   -0.0000
       3     21.5342   21.5342   82.8226    0.0000    0.0000   -0.0000
       4      0.0000   -0.0000    0.0000   21.5346   -0.0000    0.0000
       5     -0.0000    0.0000    0.0000   -0.0000   21.5346    0.0000
       6     -0.0000   -0.0000   -0.0000    0.0000    0.0000   21.5346

  Elastic Compliance Matrix: (Units=1/GPa)

[...]
    50  Cl    s      -0.001311     -0.003834      0.000000      0.000000
    51  O     s       0.000000     -0.002411     -0.002985      0.000000
    52  O     s       0.000275      0.000000     -0.000633      0.000000
    53  Cl    s      -0.000943      0.000000     -0.001424      0.000000
    54  Cl    s      -0.000772      0.000000      0.000000      0.000000
    55  O     s       0.000000     -0.001154      0.000000      0.000000
    56  Cl    s      -0.000517     -0.001063     -0.001529      0.000000
    57  O     s      -0.000601     -0.001578      0.000000      0.000000
    58  O     s       0.000000      0.000000     -0.000451      0.000000
    59  O     s       0.000000     -0.001241      0.000464      0.000000
    60  Cl    s      -0.000621      0.000000     -0.000470      0.000000
    61  O     s      -0.000840      0.000696      0.000000      0.000000
    62  O     s      -0.000659      0.000000      0.000000      0.000000
    63  Cl    s      -0.000259      0.000000      0.000770      0.000000
    64  Cl    s      -0.000094     -0.001007      0.000000      0.000000

  Comparison of initial and final region 1 :

  Parameter   Initial value   Final value   Difference    Units      Percent
      1 x          2.226987      2.226987     0.000000    Cartesian    0.00
      1 y          2.226987      2.226987     0.000000    Cartesian    0.00
      1 z          4.453974      4.714714     0.260740    Cartesian    5.85
      2 x          4.453974      4.158529    -0.295445    Cartesian   -6.63
      2 y          4.453974      4.158529    -0.295445    Cartesian   -6.63
      2 z          4.453974      4.158529    -0.295445    Cartesian   -6.63
      3 x          2.226987      2.226987     0.000000    Cartesian    0.00
      3 y          2.226987      2.226987     0.000000    Cartesian    0.00
      3 z         -2.226987     -2.412614    -0.185628    Cartesian    8.34
      4 x          2.226987      2.226987     0.000000    Cartesian    0.00
      4 y         -2.226987     -2.335959    -0.108972    Cartesian    4.89
      4 z          4.453974      4.462464     0.008490    Cartesian    0.19
      5 x          2.226987      2.226987     0.000000    Cartesian    0.00
      5 y         -2.226987     -2.220246     0.006741    Cartesian   -0.30
      5 z         -2.226987     -2.220246     0.006741    Cartesian   -0.30
      6 x         -2.226987     -2.340254    -0.113267    Cartesian    5.09
      6 y         -2.226987     -2.340254    -0.113267    Cartesian    5.09
      6 z          4.453974      4.457860     0.003887    Cartesian    0.09
      7 x          2.226987      2.226987     0.000000    Cartesian    0.00
      7 y          2.226987      2.226987     0.000000    Cartesian    0.00
      7 z          8.907948      9.029279     0.121331    Cartesian    1.36
      8 x          4.453974      4.472656     0.018683    Cartesian    0.42
      8 y          8.907948      8.887161    -0.020787    Cartesian   -0.23
      8 z          4.453974      4.472656     0.018683    Cartesian    0.42
      9 x         -2.226987     -2.214610     0.012376    Cartesian   -0.56
      9 y         -2.226987     -2.214610     0.012376    Cartesian   -0.56
      9 z         -2.226987     -2.214610     0.012376    Cartesian   -0.56
     10 x          2.226987      2.226987     0.000000    Cartesian    0.00
     10 y         -2.226987     -2.246383    -0.019396    Cartesian    0.87
     10 z          8.907948      8.924009     0.016061    Cartesian    0.18
     11 x          2.226987      2.226987     0.000000    Cartesian    0.00
     11 y          2.226987      2.226987     0.000000    Cartesian    0.00
     11 z         11.134934     11.208911     0.073976    Cartesian    0.66
     12 x          2.226987      2.226987     0.000000    Cartesian    0.00
     12 y         11.134934     11.233208     0.098274    Cartesian    0.88
     12 z          4.453974      4.461974     0.008000    Cartesian    0.18
     13 x         -2.226987     -2.258694    -0.031707    Cartesian    1.42
     13 y         -2.226987     -2.258694    -0.031707    Cartesian    1.42
     13 z          8.907948      8.915644     0.007697    Cartesian    0.09
     14 x          4.453974      4.447138    -0.006836    Cartesian   -0.15
     14 y          8.907948      8.883204    -0.024744    Cartesian   -0.28
     14 z          8.907948      8.883204    -0.024744    Cartesian   -0.28
     15 x          2.226987      2.226987     0.000000    Cartesian    0.00
     15 y          6.680961      6.682970     0.002010    Cartesian    0.03
     15 z         11.134934     11.141700     0.006765    Cartesian    0.06
     16 x          6.680961      6.685757     0.004796    Cartesian    0.07
     16 y         11.134934     11.147792     0.012857    Cartesian    0.12
     16 z          4.453974      4.457359     0.003385    Cartesian    0.08
     17 x         -2.226987     -2.229609    -0.002622    Cartesian    0.12
     17 y         -2.226987     -2.229609    -0.002622    Cartesian    0.12
     17 z         11.134934     11.138220     0.003285    Cartesian    0.03
     18 x          2.226987      2.226987     0.000000    Cartesian    0.00
     18 y          2.226987      2.226987     0.000000    Cartesian    0.00
     18 z         13.361921     13.413611     0.051690    Cartesian    0.39
     19 x          2.226987      2.226987     0.000000    Cartesian    0.00
     19 y         11.134934     11.154616     0.019682    Cartesian    0.18
     19 z          8.907948      8.912630     0.004682    Cartesian    0.05
     20 x          4.453974      4.453800    -0.000173    Cartesian   -0.00
     20 y          4.453974      4.453800    -0.000173    Cartesian   -0.00
     20 z         13.361921     13.352518    -0.009403    Cartesian   -0.07
     21 x          8.907948      8.888292    -0.019656    Cartesian   -0.22
     21 y          8.907948      8.888292    -0.019656    Cartesian   -0.22
     21 z          8.907948      8.888292    -0.019656    Cartesian   -0.22
     22 x          2.226987      2.226987     0.000000    Cartesian    0.00
     22 y         -2.226987     -2.278800    -0.051813    Cartesian    2.33
     22 z         13.361921     13.371423     0.009501    Cartesian    0.07
     23 x          8.907948      8.911920     0.003972    Cartesian    0.04
     23 y         11.134934     11.161459     0.026524    Cartesian    0.24
     23 z         -2.226987     -2.234267    -0.007280    Cartesian    0.33
     24 x          2.226987      2.226987     0.000000    Cartesian    0.00
     24 y         11.134934     11.132673    -0.002262    Cartesian   -0.02
     24 z         11.134934     11.132673    -0.002262    Cartesian   -0.02
     25 x         13.361921     13.367039     0.005117    Cartesian    0.04
     25 y         -2.226987     -2.235037    -0.008050    Cartesian    0.36
     25 z         -2.226987     -2.235037    -0.008050    Cartesian    0.36
     26 x         11.134934     11.166196     0.031261    Cartesian    0.28
     26 y         11.134934     11.166196     0.031261    Cartesian    0.28
     26 z          4.453974      4.454150     0.000176    Cartesian    0.00
     27 x          4.453974      4.448923    -0.005051    Cartesian   -0.11
     27 y          8.907948      8.903738    -0.004210    Cartesian   -0.05
     27 z         13.361921     13.349209    -0.012713    Cartesian   -0.10
     28 x          6.680961      6.680079    -0.000882    Cartesian   -0.01
     28 y         11.134934     11.135070     0.000136    Cartesian    0.00
     28 z         11.134934     11.135070     0.000136    Cartesian    0.00
     29 x          2.226987      2.226987     0.000000    Cartesian    0.00
     29 y          2.226987      2.226987     0.000000    Cartesian    0.00
     29 z         15.588908     15.613751     0.024842    Cartesian    0.16
     30 x          2.226987      2.226987     0.000000    Cartesian    0.00
     30 y         15.588908     15.607062     0.018153    Cartesian    0.12
     30 z          4.453974      4.457940     0.003966    Cartesian    0.09
     31 x          2.226987      2.226987     0.000000    Cartesian    0.00
     31 y         15.588908     15.590364     0.001456    Cartesian    0.01
     31 z         -2.226987     -2.231212    -0.004225    Cartesian    0.19
     32 x          2.226987      2.226987     0.000000    Cartesian    0.00
     32 y         11.134934     11.138064     0.003130    Cartesian    0.03
     32 z         13.361921     13.364990     0.003069    Cartesian    0.02
     33 x          8.907948      8.908359     0.000412    Cartesian    0.00
     33 y         11.134934     11.142323     0.007388    Cartesian    0.07
     33 z         11.134934     11.142323     0.007388    Cartesian    0.07
     34 x         15.588908     15.600636     0.011727    Cartesian    0.08
     34 y         -2.226987     -2.228566    -0.001579    Cartesian    0.07
     34 z          4.453974      4.455139     0.001165    Cartesian    0.03
     35 x          8.907948      8.903906    -0.004041    Cartesian   -0.05
     35 y          8.907948      8.903906    -0.004041    Cartesian   -0.05
     35 z         13.361921     13.348813    -0.013109    Cartesian   -0.10
     36 x         15.588908     15.588277    -0.000631    Cartesian   -0.00
     36 y         -2.226987     -2.228473    -0.001486    Cartesian    0.07
     36 z         -2.226987     -2.228473    -0.001486    Cartesian    0.07
     37 x         13.361921     13.366065     0.004144    Cartesian    0.03
     37 y         11.134934     11.145429     0.010494    Cartesian    0.09
     37 z         -2.226987     -2.234696    -0.007709    Cartesian    0.35
     38 x          2.226987      2.226987     0.000000    Cartesian    0.00
     38 y         15.588908     15.622168     0.033260    Cartesian    0.21
     38 z          8.907948      8.912263     0.004316    Cartesian    0.05
     39 x         11.134934     11.131167    -0.003767    Cartesian   -0.03
     39 y         11.134934     11.131167    -0.003767    Cartesian   -0.03
     39 z         11.134934     11.131167    -0.003767    Cartesian   -0.03
     40 x          2.226987      2.226987     0.000000    Cartesian    0.00
     40 y          2.226987      2.226987     0.000000    Cartesian    0.00
     40 z        -13.361921    -13.373204    -0.011283    Cartesian    0.08
     41 x         15.588908     15.612329     0.023420    Cartesian    0.15
     41 y         -2.226987     -2.231920    -0.004933    Cartesian    0.22
     41 z          8.907948      8.910809     0.002862    Cartesian    0.03
     42 x          4.453974      4.451642    -0.002332    Cartesian   -0.05
     42 y          4.453974      4.451642    -0.002332    Cartesian   -0.05
     42 z        -13.361921    -13.336130     0.025791    Cartesian   -0.19
     43 x          4.453974      4.451517    -0.002457    Cartesian   -0.06
     43 y         13.361921     13.341044    -0.020877    Cartesian   -0.16
     43 z         13.361921     13.341044    -0.020877    Cartesian   -0.16
     44 x          4.453974      4.096262    -0.357712    Cartesian   -8.03
     44 y          4.453974      4.096262    -0.357712    Cartesian   -8.03
     44 z          4.453974      4.096262    -0.357712    Cartesian   -8.03
     45 x          2.226987      2.226987     0.000000    Cartesian    0.00
     45 y          2.226987      2.226987     0.000000    Cartesian    0.00
     45 z         -2.226987     -2.384505    -0.157518    Cartesian    7.07
     46 x          2.226987      2.226987     0.000000    Cartesian    0.00
     46 y         -2.226987     -2.230520    -0.003533    Cartesian    0.16
     46 z         -2.226987     -2.230520    -0.003533    Cartesian    0.16
     47 x          4.453974      4.473031     0.019057    Cartesian    0.43
     47 y          8.907948      8.873882    -0.034065    Cartesian   -0.38
     47 z          4.453974      4.473031     0.019057    Cartesian    0.43
     48 x         -2.226987     -2.224702     0.002285    Cartesian   -0.10
     48 y         -2.226987     -2.224702     0.002285    Cartesian   -0.10
     48 z         -2.226987     -2.224702     0.002285    Cartesian   -0.10
     49 x          2.226987      2.226987     0.000000    Cartesian    0.00
     49 y          2.226987      2.226987     0.000000    Cartesian    0.00
     49 z         11.134934     11.202911     0.067976    Cartesian    0.61
     50 x          4.453974      4.444169    -0.009805    Cartesian   -0.22
     50 y          8.907948      8.865155    -0.042793    Cartesian   -0.48
     50 z          8.907948      8.865155    -0.042793    Cartesian   -0.48
     51 x          2.226987      2.226987     0.000000    Cartesian    0.00
     51 y          6.680961      6.684988     0.004027    Cartesian    0.06
     51 z         11.134934     11.144055     0.009121    Cartesian    0.08
     52 x         -2.226987     -2.231448    -0.004461    Cartesian    0.20
     52 y         -2.226987     -2.231448    -0.004461    Cartesian    0.20
     52 z         11.134934     11.140074     0.005139    Cartesian    0.05
     53 x          4.453974      4.450467    -0.003507    Cartesian   -0.08
     53 y          4.453974      4.450467    -0.003507    Cartesian   -0.08
     53 z         13.361921     13.343165    -0.018757    Cartesian   -0.14
     54 x          8.907948      8.879729    -0.028219    Cartesian   -0.32
     54 y          8.907948      8.879729    -0.028219    Cartesian   -0.32
     54 z          8.907948      8.879729    -0.028219    Cartesian   -0.32
     55 x          2.226987      2.226987     0.000000    Cartesian    0.00
     55 y         11.134934     11.133712    -0.001222    Cartesian   -0.01
     55 z         11.134934     11.133712    -0.001222    Cartesian   -0.01
     56 x          4.453974      4.446013    -0.007960    Cartesian   -0.18
     56 y          8.907948      8.900867    -0.007080    Cartesian   -0.08
     56 z         13.361921     13.343692    -0.018229    Cartesian   -0.14
     57 x          6.680961      6.681512     0.000551    Cartesian    0.01
     57 y         11.134934     11.136779     0.001844    Cartesian    0.02
     57 z         11.134934     11.136779     0.001844    Cartesian    0.02
     58 x          2.226987      2.226987     0.000000    Cartesian    0.00
     58 y          2.226987      2.226987     0.000000    Cartesian    0.00
     58 z         15.588908     15.605636     0.016728    Cartesian    0.11
     59 x          2.226987      2.226987     0.000000    Cartesian    0.00
     59 y         15.588908     15.592357     0.003449    Cartesian    0.02
     59 z         -2.226987     -2.233857    -0.006870    Cartesian    0.31
     60 x          8.907948      8.902266    -0.005682    Cartesian   -0.06
     60 y          8.907948      8.902266    -0.005682    Cartesian   -0.06
     60 z         13.361921     13.343522    -0.018399    Cartesian   -0.14
     61 x         15.588908     15.590371     0.001462    Cartesian    0.01
     61 y         -2.226987     -2.228557    -0.001571    Cartesian    0.07
     61 z         -2.226987     -2.228557    -0.001571    Cartesian    0.07
     62 x         11.134934     11.129729    -0.005206    Cartesian   -0.05
     62 y         11.134934     11.129729    -0.005206    Cartesian   -0.05
     62 z         11.134934     11.129729    -0.005206    Cartesian   -0.05
     63 x          4.453974      4.450943    -0.003031    Cartesian   -0.07
     63 y          4.453974      4.450943    -0.003031    Cartesian   -0.07
     63 z        -13.361921    -13.329631     0.032291    Cartesian   -0.24
     64 x          4.453974      4.451092    -0.002882    Cartesian   -0.06
     64 y         13.361921     13.334754    -0.027167    Cartesian   -0.20
     64 z         13.361921     13.334754    -0.027167    Cartesian   -0.20

  Time to end of optimisation  =       23.5337 seconds

  Timing analysis for GULP :

  Task / Subroutine                                          Time (Seconds)
  Calculation of reciprocal space energy and derivatives          0.0029
  Calculation of reciprocal space energy using symmetry           0.0042
  Calculation of real space energy and derivatives                0.0179
  Calculation of real space energy using symmetry                 0.0419
  Calculation for region 1 energy and derivatives (2-b)          13.6752
  Calculation for region 2a energy                                6.8956
  Calculation for region 2b energy                                0.0003
  Calculation and manipulation of Hessian matrix                  0.3136
  Calculation of matrix inversion                                 0.0022
  Symmetry generation of equivalent positions                     0.0236

  Dump file written as Na3OCl.grs

  Job Finished at 17:07.38  1st March      2021