  Job Started  at 23:23.37 25th August     2021

  Number of CPUs =     1

  Total number of configurations input =      1

*  Input for Configuration =   1                                               *

  Formula = Al2Cl6

  Number of irreducible atoms/shells =      14

  Total number atoms/shells =      14

  Dimensionality = 3               :  Bulk

  Cartesian lattice vectors (Angstroms) :

        6.024000    0.000000    0.000000
       -3.009268    5.218513    0.000000
        0.979356    1.695270    6.358406

  Cell parameters (Angstroms/Degrees):

  a =       6.0240    alpha =  81.5350
  b =       6.0240    beta  =  81.5350
  c =       6.6530    gamma = 119.9700

  Initial cell volume =         199.884923 Angs**3

  Temperature of configuration =   0.00     K

  Pressure of configuration =         0.000 GPa

  Fractional coordinates of asymmetric unit :

   No.  Atomic       x           y          z         Charge      Occupancy
        Label      (Frac)      (Frac)     (Frac)        (e)         (Frac)
      1 Al    c    0.166617    0.166617    0.000000     3.00000    1.000000
      2 Al    c    0.833383 *  0.833383 *  0.000000 *   3.00000    1.000000
      3 Cl    c    0.795473 *  0.204527 *  0.788733 *   1.48500    1.000000
      4 Cl    c    0.204527 *  0.795473 *  0.211267 *   1.48500    1.000000
      5 Cl    c    0.931503 *  0.431680 *  0.210368 *   1.48500    1.000000
      6 Cl    c    0.431680 *  0.931503 *  0.789632 *   1.48500    1.000000
      7 Cl    c    0.068497 *  0.568320 *  0.789632 *   1.48500    1.000000
      8 Cl    c    0.568320 *  0.068497 *  0.210368 *   1.48500    1.000000
      9 Cl    s    0.795473 *  0.204527 *  0.788733 *  -2.48500    1.000000
     10 Cl    s    0.204527 *  0.795473 *  0.211267 *  -2.48500    1.000000
     11 Cl    s    0.931503 *  0.431680 *  0.210368 *  -2.48500    1.000000
     12 Cl    s    0.431680 *  0.931503 *  0.789632 *  -2.48500    1.000000
     13 Cl    s    0.068497 *  0.568320 *  0.789632 *  -2.48500    1.000000
     14 Cl    s    0.568320 *  0.068497 *  0.210368 *  -2.48500    1.000000

*  General input information                                                   *

  Species output for all configurations :

  Species    Type    Atomic    Atomic    Charge       Radii (Angs)     Library
                     Number     Mass       (e)     Cova   Ionic  VDW   Symbol
    Na       Core       11      22.99   1.000000   0.970  0.000  0.000
    O        Core        8      16.00   0.183000   0.730  0.000  0.000
    O        Shell       8       0.00  -2.183000   0.730  0.000  0.000
    Cl       Core       17      35.45   1.485000   0.990  0.000  1.650
    Cl       Shell      17       0.00  -2.485000   0.990  0.000  1.650
    Mg       Core       12      24.31   0.415000   1.100  0.000  0.000
    Mg       Shell      12       0.00   1.585000   1.100  0.000  0.000
    Ca       Core       20      40.08  -1.135000   0.990  0.000  0.000
    Ca       Shell      20       0.00   3.135000   0.990  0.000  0.000
    Sr       Core       38      87.62  -1.251000   1.120  0.000  0.000
    Sr       Shell      38       0.00   3.251000   1.120  0.000  0.000
    Ba       Core       56     137.33  -7.203000   1.340  0.000  0.000
    Ba       Shell      56       0.00   9.203000   1.340  0.000  0.000
    Al       Core       13      26.98   3.000000   1.350  0.000  2.050

  Lattice summation method               =    Ewald          (3-D)
                                         =    Parry          (2-D)
                                         =    Saunders et al (1-D)
  Accuracy factor for lattice sums       =   12.000

  Analytic derivatives to be used

  Time limit = Infinity

  Maximum range for interatomic potentials =    100000.000000 Angstroms

  General interatomic potentials :

Atom  Types   Potential      Parameter       Value         Units   Cutoffs(Ang)
  1     2                                                            Min /  Max
O    c O    s Spring (c-s)  Spring k 2       593.71600    eV*Ang^-2 0.000  0.800
                            Spring k 4       0.0000000    eV*Ang^-4
Cl   c Cl   s Spring (c-s)  Spring k 2       29.380000    eV*Ang^-2 0.000  0.800
                            Spring k 4       0.0000000    eV*Ang^-4
Mg   c Mg   s Spring (c-s)  Spring k 2       361.60000    eV*Ang^-2 0.000  0.800
                            Spring k 4       0.0000000    eV*Ang^-4
Ca   c Ca   s Spring (c-s)  Spring k 2       110.20000    eV*Ang^-2 0.000  0.800
                            Spring k 4       0.0000000    eV*Ang^-4
Sr   c Sr   s Spring (c-s)  Spring k 2       71.700000    eV*Ang^-2 0.000  0.800
                            Spring k 4       0.0000000    eV*Ang^-4
Ba   c Ba   s Spring (c-s)  Spring k 2       495.20000    eV*Ang^-2 0.000  0.800
                            Spring k 4       0.0000000    eV*Ang^-4
Na   c Na   c Buckingham    Buckingham A     1788.1900    eV        0.000 12.000
                            Buckingham rho  0.15900000    Ang
                            Buckingham C     0.0000000    eV*Ang^6
Na   c O    s Buckingham    Buckingham A     588.38000    eV        0.000 12.000
                            Buckingham rho  0.33800000    Ang
                            Buckingham C     0.0000000    eV*Ang^6
Na   c Cl   s Buckingham    Buckingham A     1170.4100    eV        0.000 12.000
                            Buckingham rho  0.31500000    Ang
                            Buckingham C     0.0000000    eV*Ang^6
O    s O    s Buckingham    Buckingham A     22764.300    eV        0.000 12.000
                            Buckingham rho  0.14900000    Ang
                            Buckingham C     13.190000    eV*Ang^6
O    s Cl   s Buckingham    Buckingham A     8286.9100    eV        0.000 12.000
                            Buckingham rho  0.25900000    Ang
                            Buckingham C     62.200000    eV*Ang^6
Cl   s Cl   s Buckingham    Buckingham A     1227.2000    eV        0.000 12.000
                            Buckingham rho  0.32100000    Ang
                            Buckingham C     14.530000    eV*Ang^6
O    s Mg   s Buckingham    Buckingham A     1428.5000    eV        0.000 12.000
                            Buckingham rho  0.29450000    Ang
                            Buckingham C     0.0000000    eV*Ang^6
Mg   s Cl   s Buckingham    Buckingham A     4914.5400    eV        0.000 12.000
                            Buckingham rho  0.25700000    Ang
                            Buckingham C     0.0000000    eV*Ang^6
O    s Ca   s Buckingham    Buckingham A     1090.4000    eV        0.000 12.000
                            Buckingham rho  0.34370000    Ang
                            Buckingham C     0.0000000    eV*Ang^6
Cl   s Ca   s Buckingham    Buckingham A     2302.0000    eV        0.000 12.000
                            Buckingham rho  0.34020000    Ang
                            Buckingham C     0.0000000    eV*Ang^6
O    s Sr   s Buckingham    Buckingham A     959.10000    eV        0.000 12.000
                            Buckingham rho  0.37210000    Ang
                            Buckingham C     0.0000000    eV*Ang^6
Cl   s Sr   s Buckingham    Buckingham A     2191.0900    eV        0.000 12.000
                            Buckingham rho  0.34570000    Ang
                            Buckingham C     0.0000000    eV*Ang^6
O    s Ba   s Buckingham    Buckingham A     905.70000    eV        0.000 12.000
                            Buckingham rho  0.39760000    Ang
                            Buckingham C     0.0000000    eV*Ang^6
Cl   s Ba   s Buckingham    Buckingham A     2704.5500    eV        0.000 12.000
                            Buckingham rho  0.35280000    Ang
                            Buckingham C     0.0000000    eV*Ang^6
Al   c O    s Buckingham    Buckingham A     1725.0000    eV        0.000 12.000
                            Buckingham rho  0.28970000    Ang
                            Buckingham C     0.0000000    eV*Ang^6
Al   c Cl   s Buckingham    Buckingham A     1736.1200    eV        0.000 12.000
                            Buckingham rho  0.29170000    Ang
                            Buckingham C     0.0000000    eV*Ang^6

*  Output for configuration   1                                                *

  Components of energy :

  Interatomic potentials     =          13.82307253 eV
  Monopole - monopole (real) =           8.88375724 eV
  Monopole - monopole (recip)=         -62.11584060 eV
  Monopole - monopole (total)=         -53.23208336 eV
  Total lattice energy       =         -39.40901083 eV
  Total lattice energy       =           -3802.3671 kJ/(mole unit cells)

  Number of variables =       45

  Maximum number of calculations  =          1000
  Maximum Hessian update interval =            10
  Maximum step size               =   1.000000000
  Maximum parameter tolerance     =   0.000010000
  Maximum function  tolerance     =   0.000010000
  Maximum gradient  tolerance     =   0.001000000
  Maximum gradient  component     =   0.010000000

  Symmetry not applied to optimisation

  Cell parameters to be optimised using strains

  Newton-Raphson optimiser to be used

  BFGS hessian update to be used

  Lower half triangular hessian to be used

  Start of bulk optimisation :

  ** Hessian calculated **
  ** Hessian calculated **
  ** Hessian calculated **
  ** Hessian calculated **
  ** Hessian calculated **
  ** Hessian calculated **
  ** Hessian calculated **
  ** Hessian calculated **
  ** Hessian calculated **
  ** Hessian calculated **
  ** Hessian calculated **
  ** Hessian calculated **
  ** Hessian calculated **
  ** Hessian calculated **
  ** Hessian calculated **
  ** Hessian calculated **
  ** Hessian calculated **
  ** Hessian calculated **
  ** Hessian calculated **
  ** Hessian calculated **
  ** Hessian calculated **
  ** Hessian calculated **
  ** Hessian calculated **
  ** Hessian calculated **
  ** Hessian calculated **
  ** Hessian calculated **
  ** Hessian calculated **
  ** Hessian calculated **
  ** Hessian calculated **
  ** Hessian calculated **

  **** Optimisation achieved ****

  Final energy =    -111.69941093 eV
  Final Gnorm  =       0.00050752

  Components of energy :

  Interatomic potentials     =          35.79869855 eV
  Monopole - monopole (real) =          43.96121533 eV
  Monopole - monopole (recip)=        -191.45932480 eV
  Monopole - monopole (total)=        -147.49810948 eV
  Total lattice energy       =        -111.69941093 eV
  Total lattice energy       =          -10777.2857 kJ/(mole unit cells)

  Final fractional coordinates of atoms :

   No.  Atomic        x           y          z          Radius
        Label       (Frac)      (Frac)     (Frac)       (Angs)
     1  Al    c     0.166617    0.166617    0.000000    0.000000
     2  Al    c     0.788602    0.844086    0.113475    0.000000
     3  Cl    c     0.783026    0.186551    0.860955    0.000000
     4  Cl    c     0.172271    0.824071    0.252546    0.000000
     5  Cl    c     0.001710    0.303288    0.311285    0.000000
     6  Cl    c     0.377279    0.938939    0.949908    0.000000
     7  Cl    c     0.953625    0.707405    0.802193    0.000000
     8  Cl    c     0.578009    0.071678    0.163616    0.000000
     9  Cl    s     0.811754    0.137587    0.905084    0.000000
    10  Cl    s     0.143534    0.873071    0.208408    0.000000
    11  Cl    s     0.966591    0.392038    0.278440    0.000000
    12  Cl    s     0.380031    0.963924    0.967940    0.000000
    13  Cl    s     0.988727    0.618647    0.835042    0.000000
    14  Cl    s     0.575266    0.046709    0.145576    0.000000

  Final Cartesian lattice vectors (Angstroms) :

        4.409202    2.600789   -2.579092
       -0.005682    5.654619    2.768620
        1.044661    3.949330   11.452451

  Final cell parameters and derivatives :

       a            5.732092 Angstrom     dE/de1(xx)    -0.001269 eV/strain
       b            6.296030 Angstrom     dE/de2(yy)     0.001693 eV/strain
       c           12.159241 Angstrom     dE/de3(zz)     0.000766 eV/strain
       alpha       45.104721 Degrees      dE/de4(yz)     0.000526 eV/strain
       beta       102.141588 Degrees      dE/de5(xz)     0.000474 eV/strain
       gamma       77.939165 Degrees      dE/de6(xy)     0.001206 eV/strain

  Primitive cell volume =           260.309909 Angs**3

  Density of cell =      1.701074 g/cm**3

  Non-primitive cell volume =           260.309909 Angs**3

  Final internal derivatives :

   No.  Atomic          a             b             c           Radius
        Label          (eV)          (eV)          (eV)        (eV/Angs)
      1 Al    c       0.000000      0.000000      0.000000      0.000000
      2 Al    c      -0.003414     -0.000152     -0.002482      0.000000
      3 Cl    c      -0.002339     -0.001731      0.005661      0.000000
      4 Cl    c       0.001855     -0.001000     -0.001816      0.000000
      5 Cl    c       0.001223      0.002211      0.003384      0.000000
      6 Cl    c      -0.000171      0.001096      0.003363      0.000000
      7 Cl    c       0.000056     -0.002172     -0.004754      0.000000
      8 Cl    c       0.000873     -0.001059     -0.002198      0.000000
      9 Cl    s      -0.000996     -0.004385     -0.008019      0.000000
     10 Cl    s       0.000873      0.003302      0.008537      0.000000
     11 Cl    s       0.000988     -0.005432     -0.005208      0.000000
     12 Cl    s      -0.002639     -0.001527     -0.005758      0.000000
     13 Cl    s       0.000536      0.003163      0.007209      0.000000
     14 Cl    s       0.002867      0.000016      0.006668      0.000000
  Maximum abs         0.003414      0.005432      0.008537      0.000000

  Comparison of initial and final structures :

  Parameter   Initial value   Final value   Difference    Units      Percent
    Volume       199.884923    260.309909    60.424986    Angs**3     30.23
    a              6.024000      5.732092    -0.291908    Angstroms   -4.85
    b              6.024000      6.296030     0.272030    Angstroms    4.52
    c              6.653000     12.159241     5.506241    Angstroms   82.76
    alpha         81.535000     45.104721   -36.430279    Degrees    -44.68
    beta          81.535000    102.141588    20.606588    Degrees     25.27
    gamma        119.970000     77.939165   -42.030835    Degrees    -35.03
      1 x          0.166617      0.166617     0.000000    Fractional   0.00
      1 y          0.166617      0.166617     0.000000    Fractional   0.00
      1 z          0.000000      0.000000     0.000000    Fractional   0.00
      2 x          0.833383      0.788602     0.044781    Fractional   5.37
      2 y          0.833383      0.844086     0.010703    Fractional   1.28
      2 z          0.000000      0.113475     0.113475    Fractional   0.00
      3 x          0.795473      0.783026     0.012447    Fractional   1.56
      3 y          0.204527      0.186551     0.017976    Fractional   8.79
      3 z          0.788733      0.860955     0.072222    Fractional   9.16
      4 x          0.204527      0.172271     0.032256    Fractional  15.77
      4 y          0.795473      0.824071     0.028598    Fractional   3.60
      4 z          0.211267      0.252546     0.041279    Fractional  19.54
      5 x          0.931503      0.001710     0.070207    Fractional   7.54
      5 y          0.431680      0.303288     0.128392    Fractional  29.74
      5 z          0.210368      0.311285     0.100917    Fractional  47.97
      6 x          0.431680      0.377279     0.054401    Fractional  12.60
      6 y          0.931503      0.938939     0.007436    Fractional   0.80
      6 z          0.789632      0.949908     0.160276    Fractional  20.30
      7 x          0.068497      0.953625     0.114872    Fractional 167.70
      7 y          0.568320      0.707405     0.139085    Fractional  24.47
      7 z          0.789632      0.802193     0.012561    Fractional   1.59
      8 x          0.568320      0.578009     0.009689    Fractional   1.70
      8 y          0.068497      0.071678     0.003181    Fractional   4.64
      8 z          0.210368      0.163616     0.046752    Fractional  22.22
      9 x          0.795473      0.811754     0.016281    Fractional   2.05
      9 y          0.204527      0.137587     0.066940    Fractional  32.73
      9 z          0.788733      0.905084     0.116351    Fractional  14.75
     10 x          0.204527      0.143534     0.060993    Fractional  29.82
     10 y          0.795473      0.873071     0.077598    Fractional   9.75
     10 z          0.211267      0.208408     0.002859    Fractional   1.35
     11 x          0.931503      0.966591     0.035088    Fractional   3.77
     11 y          0.431680      0.392038     0.039642    Fractional   9.18
     11 z          0.210368      0.278440     0.068072    Fractional  32.36
     12 x          0.431680      0.380031     0.051649    Fractional  11.96
     12 y          0.931503      0.963924     0.032421    Fractional   3.48
     12 z          0.789632      0.967940     0.178308    Fractional  22.58
     13 x          0.068497      0.988727     0.079770    Fractional 116.46
     13 y          0.568320      0.618647     0.050327    Fractional   8.86
     13 z          0.789632      0.835042     0.045410    Fractional   5.75
     14 x          0.568320      0.575266     0.006946    Fractional   1.22
     14 y          0.068497      0.046709     0.021788    Fractional  31.81
     14 z          0.210368      0.145576     0.064792    Fractional  30.80

  Born effective charge tensors :

  Atom             x           y             z
    1 Al    x       2.4256      1.1325     -0.3819
            y       1.1732      1.4717     -0.0788
            z      -0.4414     -0.1467      1.1709
    2 Al    x       2.4253      1.1327     -0.3817
            y       1.1732      1.4719     -0.0792
            z      -0.4412     -0.1472      1.1707
    3 Cl    x      -0.8293     -0.5773      0.1226
            y      -0.5274     -0.6702      0.1222
            z       0.0997      0.1587     -0.4000
    4 Cl    x      -0.8295     -0.5772      0.1226
            y      -0.5274     -0.6701      0.1221
            z       0.0996      0.1586     -0.3999
    5 Cl    x      -0.5134     -0.2120      0.0819
            y      -0.2077     -0.3783     -0.0155
            z       0.1173      0.0071     -0.3888
    6 Cl    x      -1.0826     -0.3433      0.1774
            y      -0.4380     -0.4235     -0.0276
            z       0.2245     -0.0188     -0.3821
    7 Cl    x      -0.5134     -0.2120      0.0820
            y      -0.2078     -0.3780     -0.0156
            z       0.1173      0.0070     -0.3888
    8 Cl    x      -1.0826     -0.3434      0.1772
            y      -0.4381     -0.4235     -0.0276
            z       0.2243     -0.0187     -0.3820

  Elastic Constant Matrix: (Units=GPa)

  Indices      1         2         3         4         5         6
       1     13.0028    4.4314    4.5909   -4.4626   -7.4214    7.8356
       2      4.4314    2.4744    2.3626   -0.6390   -2.7874    2.3711
       3      4.5909    2.3626    1.3988   -1.4367   -2.6669    2.2598
       4     -4.4626   -0.6390   -1.4367    2.1084    2.4646   -3.0218
       5     -7.4214   -2.7874   -2.6669    2.4646    4.3077   -4.5854
       6      7.8356    2.3711    2.2598   -3.0218   -4.5854    4.1151

  Elastic Compliance Matrix: (Units=1/GPa)

  Indices      1         2         3         4         5         6
       1    5.487629 -1.229327 -0.784369  3.166799  5.767514 -0.557812
       2   -1.229327  0.218379  1.953813 -1.395982 -0.838877 -0.817834
       3   -0.784369  1.953813  2.194617 -3.835546  2.275165 -1.118760
       4    3.166799 -1.395982 -3.835546  5.349389  0.115936  0.938069
       5    5.767514 -0.838877  2.275165  0.115936  7.773265 -3.001160
       6   -0.557812 -0.817834 -1.118760  0.938069 -3.001160 -0.264581

  Mechanical properties :

  Convention :                    Reuss         Voigt         Hill
  Bulk  Modulus (GPa)     =       0.12852       4.40508       2.26680
  Shear Modulus (GPa)     =       0.21302       2.47231       1.34266
  Velocity S-wave (km/s)  =       0.35387       1.20556       0.88843
  Velocity P-wave (km/s)  =       0.49246       2.12778       1.54434
  Compressibility (1/GPa) =    7.78085901
  Stress axis :                     x             y             z
  Youngs Moduli (GPa)     =       0.18223       4.57920       0.45566
  Poissons Ratio (x)      =                     5.62933       0.35741
  Poissons Ratio (y)      =       0.22402                    -0.89027
  Poissons Ratio (z)      =       0.14293      -8.94690

  Piezoelectric Strain Matrix: (Units=C/m**2)

  Indices      1         2         3         4         5         6
       x    -0.00298  -0.00137  -0.00171   0.00067   0.00234  -0.00320
       y    -0.00226  -0.00109  -0.00109   0.00068   0.00150  -0.00171
       z     0.00057   0.00030   0.00059  -0.00022   0.00002   0.00074

  Piezoelectric Stress Matrix: (Units=10**-11 C/N)

  Indices      1         2         3         4         5         6
       x     0.40385  -0.02542   0.22416  -0.01219   0.78998  -0.08392
       y     0.15496  -0.03981  -0.00384   0.07618   0.22641  -0.00340
       z     0.13016   0.02004   0.14868  -0.13415   0.22808  -0.16753

  Static dielectric constant tensor :

              x         y         z
       x     5.55499   2.44479  -1.30585
       y     2.44479   3.37012  -0.69809
       z    -1.30585  -0.69809   2.42373

  High frequency dielectric constant tensor :

              x         y         z
       x     2.06618   0.25170  -0.12346
       y     0.25170   1.89984  -0.01600
       z    -0.12346  -0.01600   1.77096

  Static refractive indices :

    1 =    1.31573      2 =    1.43305      3 =    2.75028

  High frequency refractive indices :

    1 =    1.29326      2 =    1.33871      3 =    1.50741

  Time to end of optimisation =       2.7094 seconds

*  Defect calculation for configuration   1 :                                  *

  **** No defects for configuration number    1 ****

  Timing analysis for GULP :

  Task / Subroutine                                          Time (Seconds)
  Calculation of reciprocal space energy and derivatives          0.0867
  Calculation of real space energy and derivatives                2.6047
  Calculation and manipulation of Hessian matrix                  0.0003
  Calculation of matrix inversion                                 0.0009
  Global summation overhead                                       0.0004

  Dump file written as Na3OCl.grs

  Job Finished at 23:23.40 25th August     2021