  Job Started  at 00:29.36 26th August     2021

  Number of CPUs =     1

  Total number of configurations input =      1

*  Input for Configuration =   1                                               *

  Formula = Ga2Cl6

  Number of irreducible atoms/shells =      14

  Total number atoms/shells =      14

  Dimensionality = 3               :  Bulk

  Cartesian lattice vectors (Angstroms) :

        7.286000    0.000000    0.000000
        3.439979    6.422799    0.000000
        3.788756    2.268736    5.995088

  Cell parameters (Angstroms/Degrees):

  a =       7.2860    alpha =  59.4140
  b =       7.2860    beta  =  59.4140
  c =       7.4460    gamma =  61.8270

  Initial cell volume =         280.549192 Angs**3

  Temperature of configuration =   0.00     K

  Pressure of configuration =         0.000 GPa

  Fractional coordinates of asymmetric unit :

   No.  Atomic       x           y          z         Charge      Occupancy
        Label      (Frac)      (Frac)     (Frac)        (e)         (Frac)
      1 Ga    c    0.344749    0.344749    0.084305     3.00000    1.000000
      2 Ga    c    0.655251 *  0.655251 *  0.915695 *   3.00000    1.000000
      3 Cl    c    0.278747 *  0.721253 *  0.000000 *   1.48500    1.000000
      4 Cl    c    0.721253 *  0.278747 *  0.000000 *   1.48500    1.000000
      5 Cl    c    0.689436 *  0.689436 *  0.164912 *   1.48500    1.000000
      6 Cl    c    0.310564 *  0.310564 *  0.835088 *   1.48500    1.000000
      7 Cl    c    0.813092 *  0.813092 *  0.569365 *   1.48500    1.000000
      8 Cl    c    0.186908 *  0.186908 *  0.430635 *   1.48500    1.000000
      9 Cl    s    0.278747 *  0.721253 *  0.000000 *  -2.48500    1.000000
     10 Cl    s    0.721253 *  0.278747 *  0.000000 *  -2.48500    1.000000
     11 Cl    s    0.689436 *  0.689436 *  0.164912 *  -2.48500    1.000000
     12 Cl    s    0.310564 *  0.310564 *  0.835088 *  -2.48500    1.000000
     13 Cl    s    0.813092 *  0.813092 *  0.569365 *  -2.48500    1.000000
     14 Cl    s    0.186908 *  0.186908 *  0.430635 *  -2.48500    1.000000

*  General input information                                                   *

  Species output for all configurations :

  Species    Type    Atomic    Atomic    Charge       Radii (Angs)     Library
                     Number     Mass       (e)     Cova   Ionic  VDW   Symbol
    Na       Core       11      22.99   1.000000   0.970  0.000  0.000
    O        Core        8      16.00   0.183000   0.730  0.000  0.000
    O        Shell       8       0.00  -2.183000   0.730  0.000  0.000
    Cl       Core       17      35.45   1.485000   0.990  0.000  1.650
    Cl       Shell      17       0.00  -2.485000   0.990  0.000  1.650
    Mg       Core       12      24.31   0.415000   1.100  0.000  0.000
    Mg       Shell      12       0.00   1.585000   1.100  0.000  0.000
    Ca       Core       20      40.08  -1.135000   0.990  0.000  0.000
    Ca       Shell      20       0.00   3.135000   0.990  0.000  0.000
    Sr       Core       38      87.62  -1.251000   1.120  0.000  0.000
    Sr       Shell      38       0.00   3.251000   1.120  0.000  0.000
    Ba       Core       56     137.33  -7.203000   1.340  0.000  0.000
    Ba       Shell      56       0.00   9.203000   1.340  0.000  0.000
    Al       Core       13      26.98   3.000000   1.350  0.000  0.000
    Ga       Core       31      69.72   3.000000   1.220  0.000  1.820

  Lattice summation method               =    Ewald          (3-D)
                                         =    Parry          (2-D)
                                         =    Saunders et al (1-D)
  Accuracy factor for lattice sums       =   12.000

  Analytic derivatives to be used

  Time limit = Infinity

  Maximum range for interatomic potentials =    100000.000000 Angstroms

  General interatomic potentials :

Atom  Types   Potential      Parameter       Value         Units   Cutoffs(Ang)
  1     2                                                            Min /  Max
O    c O    s Spring (c-s)  Spring k 2       593.71600    eV*Ang^-2 0.000  0.800
                            Spring k 4       0.0000000    eV*Ang^-4
Cl   c Cl   s Spring (c-s)  Spring k 2       29.380000    eV*Ang^-2 0.000  0.800
                            Spring k 4       0.0000000    eV*Ang^-4
Mg   c Mg   s Spring (c-s)  Spring k 2       361.60000    eV*Ang^-2 0.000  0.800
                            Spring k 4       0.0000000    eV*Ang^-4
Ca   c Ca   s Spring (c-s)  Spring k 2       110.20000    eV*Ang^-2 0.000  0.800
                            Spring k 4       0.0000000    eV*Ang^-4
Sr   c Sr   s Spring (c-s)  Spring k 2       71.700000    eV*Ang^-2 0.000  0.800
                            Spring k 4       0.0000000    eV*Ang^-4
Ba   c Ba   s Spring (c-s)  Spring k 2       495.20000    eV*Ang^-2 0.000  0.800
                            Spring k 4       0.0000000    eV*Ang^-4
Na   c Na   c Buckingham    Buckingham A     1788.1900    eV        0.000 12.000
                            Buckingham rho  0.15900000    Ang
                            Buckingham C     0.0000000    eV*Ang^6
Na   c O    s Buckingham    Buckingham A     588.38000    eV        0.000 12.000
                            Buckingham rho  0.33800000    Ang
                            Buckingham C     0.0000000    eV*Ang^6
Na   c Cl   s Buckingham    Buckingham A     1170.4100    eV        0.000 12.000
                            Buckingham rho  0.31500000    Ang
                            Buckingham C     0.0000000    eV*Ang^6
O    s O    s Buckingham    Buckingham A     22764.300    eV        0.000 12.000
                            Buckingham rho  0.14900000    Ang
                            Buckingham C     13.190000    eV*Ang^6
O    s Cl   s Buckingham    Buckingham A     8286.9100    eV        0.000 12.000
                            Buckingham rho  0.25900000    Ang
                            Buckingham C     62.200000    eV*Ang^6
Cl   s Cl   s Buckingham    Buckingham A     1227.2000    eV        0.000 12.000
                            Buckingham rho  0.32100000    Ang
                            Buckingham C     14.530000    eV*Ang^6
O    s Mg   s Buckingham    Buckingham A     1428.5000    eV        0.000 12.000
                            Buckingham rho  0.29450000    Ang
                            Buckingham C     0.0000000    eV*Ang^6
Mg   s Cl   s Buckingham    Buckingham A     4914.5400    eV        0.000 12.000
                            Buckingham rho  0.25700000    Ang
                            Buckingham C     0.0000000    eV*Ang^6
O    s Ca   s Buckingham    Buckingham A     1090.4000    eV        0.000 12.000
                            Buckingham rho  0.34370000    Ang
                            Buckingham C     0.0000000    eV*Ang^6
Cl   s Ca   s Buckingham    Buckingham A     2302.0000    eV        0.000 12.000
                            Buckingham rho  0.34020000    Ang
                            Buckingham C     0.0000000    eV*Ang^6
O    s Sr   s Buckingham    Buckingham A     959.10000    eV        0.000 12.000
                            Buckingham rho  0.37210000    Ang
                            Buckingham C     0.0000000    eV*Ang^6
Cl   s Sr   s Buckingham    Buckingham A     2191.0900    eV        0.000 12.000
                            Buckingham rho  0.34570000    Ang
                            Buckingham C     0.0000000    eV*Ang^6
O    s Ba   s Buckingham    Buckingham A     905.70000    eV        0.000 12.000
                            Buckingham rho  0.39760000    Ang
                            Buckingham C     0.0000000    eV*Ang^6
Cl   s Ba   s Buckingham    Buckingham A     2704.5500    eV        0.000 12.000
                            Buckingham rho  0.35280000    Ang
                            Buckingham C     0.0000000    eV*Ang^6
Al   c O    s Buckingham    Buckingham A     1725.0000    eV        0.000 12.000
                            Buckingham rho  0.28970000    Ang
                            Buckingham C     0.0000000    eV*Ang^6
Al   c Cl   s Buckingham    Buckingham A     1736.1200    eV        0.000 12.000
                            Buckingham rho  0.29170000    Ang
                            Buckingham C     0.0000000    eV*Ang^6
Ga   c O    s Buckingham    Buckingham A     2901.1200    eV        0.000 12.000
                            Buckingham rho  0.27420000    Ang
                            Buckingham C     0.0000000    eV*Ang^6
Ga   c Cl   s Buckingham    Buckingham A     924.20000    eV        0.000 12.000
                            Buckingham rho  0.34280000    Ang
                            Buckingham C     0.0000000    eV*Ang^6

*  Output for configuration   1                                                *

  Components of energy :

  Interatomic potentials     =          11.57294692 eV
  Monopole - monopole (real) =         -36.64258428 eV
  Monopole - monopole (recip)=         -62.97523081 eV
  Monopole - monopole (total)=         -99.61781509 eV
  Total lattice energy       =         -88.04486817 eV
  Total lattice energy       =           -8494.9839 kJ/(mole unit cells)

  Number of variables =       45

  Maximum number of calculations  =          1000
  Maximum Hessian update interval =            10
  Maximum step size               =   1.000000000
  Maximum parameter tolerance     =   0.000010000
  Maximum function  tolerance     =   0.000010000
  Maximum gradient  tolerance     =   0.001000000
  Maximum gradient  component     =   0.010000000

  Symmetry not applied to optimisation

  Cell parameters to be optimised using strains

  Newton-Raphson optimiser to be used

  BFGS hessian update to be used

  Lower half triangular hessian to be used

  Start of bulk optimisation :

  ** Hessian calculated **
  ** Hessian calculated **
  ** Hessian calculated **
  ** Hessian calculated **
  ** Hessian calculated **
  ** Hessian calculated **
  ** Hessian calculated **
  ** Hessian calculated **
  ** Hessian calculated **
  ** Hessian calculated **
  ** Hessian calculated **
  ** Hessian calculated **
  ** Hessian calculated **

  **** Optimisation achieved ****

  Final energy =    -103.22937106 eV
  Final Gnorm  =       0.00061091

  Components of energy :

  Interatomic potentials     =          38.27257558 eV
  Monopole - monopole (real) =          53.11246600 eV
  Monopole - monopole (recip)=        -194.61441264 eV
  Monopole - monopole (total)=        -141.50194664 eV
  Total lattice energy       =        -103.22937106 eV
  Total lattice energy       =           -9960.0563 kJ/(mole unit cells)

  Final fractional coordinates of atoms :

   No.  Atomic        x           y          z          Radius
        Label       (Frac)      (Frac)     (Frac)       (Angs)
     1  Ga    c     0.344749    0.344749    0.084305    0.000000
     2  Ga    c     0.727725    0.613639    0.888480    0.000000
     3  Cl    c     0.311264    0.717832    0.982123    0.000000
     4  Cl    c     0.761280    0.240602    0.990424    0.000000
     5  Cl    c     0.771256    0.655241    0.141524    0.000000
     6  Cl    c     0.300987    0.302868    0.831593    0.000000
     7  Cl    c     0.867350    0.788276    0.527393    0.000000
     8  Cl    c     0.205245    0.170230    0.445455    0.000000
     9  Cl    s     0.348986    0.670350    0.985168    0.000000
    10  Cl    s     0.723551    0.288072    0.987424    0.000000
    11  Cl    s     0.769191    0.648072    0.100179    0.000000
    12  Cl    s     0.303095    0.310096    0.872881    0.000000
    13  Cl    s     0.844212    0.759336    0.586132    0.000000
    14  Cl    s     0.228360    0.199148    0.386715    0.000000

  Final Cartesian lattice vectors (Angstroms) :

        6.738095   -0.007614   -0.063558
        3.180663    6.365006    0.076805
        3.473594    2.283909    5.769543

  Final cell parameters and derivatives :

       a            6.738399 Angstrom     dE/de1(xx)    -0.000402 eV/strain
       b            7.115885 Angstrom     dE/de2(yy)    -0.000218 eV/strain
       c            7.111239 Angstrom     dE/de3(zz)     0.000006 eV/strain
       alpha       59.044625 Degrees      dE/de4(yz)     0.000257 eV/strain
       beta        61.286659 Degrees      dE/de5(xz)     0.001573 eV/strain
       gamma       63.522402 Degrees      dE/de6(xy)     0.000011 eV/strain

  Primitive cell volume =           247.343535 Angs**3

  Density of cell =      2.364127 g/cm**3

  Non-primitive cell volume =           247.343535 Angs**3

  Final internal derivatives :

   No.  Atomic          a             b             c           Radius
        Label          (eV)          (eV)          (eV)        (eV/Angs)
      1 Ga    c       0.000000      0.000000      0.000000      0.000000
      2 Ga    c      -0.005897     -0.000492     -0.000943      0.000000
      3 Cl    c       0.007077     -0.001504     -0.001837      0.000000
      4 Cl    c      -0.002885      0.002154     -0.002275      0.000000
      5 Cl    c      -0.003155     -0.004695      0.005431      0.000000
      6 Cl    c      -0.001244     -0.000409     -0.002448      0.000000
      7 Cl    c       0.001812     -0.000149     -0.001503      0.000000
      8 Cl    c      -0.001673     -0.000811      0.006508      0.000000
      9 Cl    s       0.004771      0.005793      0.002774      0.000000
     10 Cl    s       0.004720      0.000344      0.005095      0.000000
     11 Cl    s       0.006685      0.002852      0.009194      0.000000
     12 Cl    s      -0.000532      0.005200      0.003605      0.000000
     13 Cl    s      -0.007895     -0.007104     -0.007220      0.000000
     14 Cl    s       0.002596      0.002286      0.007466      0.000000
  Maximum abs         0.007895      0.007104      0.009194      0.000000

  Comparison of initial and final structures :

  Parameter   Initial value   Final value   Difference    Units      Percent
    Volume       280.549192    247.343535   -33.205658    Angs**3    -11.84
    a              7.286000      6.738399    -0.547601    Angstroms   -7.52
    b              7.286000      7.115885    -0.170115    Angstroms   -2.33
    c              7.446000      7.111239    -0.334761    Angstroms   -4.50
    alpha         59.414000     59.044625    -0.369375    Degrees     -0.62
    beta          59.414000     61.286659     1.872659    Degrees      3.15
    gamma         61.827000     63.522402     1.695402    Degrees      2.74
      1 x          0.344749      0.344749     0.000000    Fractional   0.00
      1 y          0.344749      0.344749     0.000000    Fractional   0.00
      1 z          0.084305      0.084305     0.000000    Fractional   0.00
      2 x          0.655251      0.727725     0.072474    Fractional  11.06
      2 y          0.655251      0.613639     0.041612    Fractional   6.35
      2 z          0.915695      0.888480     0.027215    Fractional   2.97
      3 x          0.278747      0.311264     0.032517    Fractional  11.67
      3 y          0.721253      0.717832     0.003421    Fractional   0.47
      3 z          0.000000      0.982123     0.982123    Fractional   0.00
      4 x          0.721253      0.761280     0.040027    Fractional   5.55
      4 y          0.278747      0.240602     0.038145    Fractional  13.68
      4 z          0.000000      0.990424     0.990424    Fractional   0.00
      5 x          0.689436      0.771256     0.081820    Fractional  11.87
      5 y          0.689436      0.655241     0.034195    Fractional   4.96
      5 z          0.164912      0.141524     0.023388    Fractional  14.18
      6 x          0.310564      0.300987     0.009577    Fractional   3.08
      6 y          0.310564      0.302868     0.007696    Fractional   2.48
      6 z          0.835088      0.831593     0.003495    Fractional   0.42
      7 x          0.813092      0.867350     0.054258    Fractional   6.67
      7 y          0.813092      0.788276     0.024816    Fractional   3.05
      7 z          0.569365      0.527393     0.041972    Fractional   7.37
      8 x          0.186908      0.205245     0.018337    Fractional   9.81
      8 y          0.186908      0.170230     0.016678    Fractional   8.92
      8 z          0.430635      0.445455     0.014820    Fractional   3.44
      9 x          0.278747      0.348986     0.070239    Fractional  25.20
      9 y          0.721253      0.670350     0.050903    Fractional   7.06
      9 z          0.000000      0.985168     0.985168    Fractional   0.00
     10 x          0.721253      0.723551     0.002298    Fractional   0.32
     10 y          0.278747      0.288072     0.009325    Fractional   3.35
     10 z          0.000000      0.987424     0.987424    Fractional   0.00
     11 x          0.689436      0.769191     0.079755    Fractional  11.57
     11 y          0.689436      0.648072     0.041364    Fractional   6.00
     11 z          0.164912      0.100179     0.064733    Fractional  39.25
     12 x          0.310564      0.303095     0.007469    Fractional   2.41
     12 y          0.310564      0.310096     0.000468    Fractional   0.15
     12 z          0.835088      0.872881     0.037793    Fractional   4.53
     13 x          0.813092      0.844212     0.031120    Fractional   3.83
     13 y          0.813092      0.759336     0.053756    Fractional   6.61
     13 z          0.569365      0.586132     0.016767    Fractional   2.94
     14 x          0.186908      0.228360     0.041452    Fractional  22.18
     14 y          0.186908      0.199148     0.012240    Fractional   6.55
     14 z          0.430635      0.386715     0.043920    Fractional  10.20

  Born effective charge tensors :

  Atom             x           y             z
    1 Ga    x       2.5431      0.0920     -0.2447
            y       0.0921      1.8846     -0.0888
            z      -0.2726     -0.1102      1.4258
    2 Ga    x       2.5429      0.0918     -0.2432
            y       0.0919      1.8848     -0.0883
            z      -0.2715     -0.1097      1.4249
    3 Cl    x      -1.1491     -0.0710      0.2807
            y      -0.0651     -0.8301      0.1114
            z       0.2779      0.1152     -0.3709
    4 Cl    x      -1.1492     -0.0710      0.2810
            y      -0.0649     -0.8302      0.1110
            z       0.2780      0.1149     -0.3710
    5 Cl    x      -0.8222     -0.0046     -0.0930
            y      -0.0082     -0.5730     -0.0521
            z      -0.0325     -0.0279     -0.4657
    6 Cl    x      -0.8221     -0.0045     -0.0927
            y      -0.0081     -0.5730     -0.0519
            z      -0.0323     -0.0277     -0.4653
    7 Cl    x      -0.5718     -0.0164      0.0558
            y      -0.0188     -0.4815      0.0292
            z       0.0264      0.0227     -0.5886
    8 Cl    x      -0.5718     -0.0164      0.0560
            y      -0.0189     -0.4815      0.0294
            z       0.0266      0.0228     -0.5893

  Elastic Constant Matrix: (Units=GPa)

  Indices      1         2         3         4         5         6
       1      5.8091    1.5684    0.4664   -0.1413   -0.3132    0.4250
       2      1.5684    0.7616    0.6996   -0.1759    0.1225    0.3615
       3      0.4664    0.6996    1.2096    0.0019   -0.0792   -0.1647
       4     -0.1413   -0.1759    0.0019    0.7607   -0.0015    0.2158
       5     -0.3132    0.1225   -0.0792   -0.0015    0.8376   -0.2918
       6      0.4250    0.3615   -0.1647    0.2158   -0.2918    0.9789

  Elastic Compliance Matrix: (Units=1/GPa)

  Indices      1         2         3         4         5         6
       1    0.075451  0.593430 -0.454139  0.285221 -0.264797 -0.470146
       2    0.593430 -3.086188  1.917500 -1.147108  1.517935  1.910130
       3   -0.454139  1.917500 -0.288240  0.623771 -0.802515 -0.936234
       4    0.285221 -1.147108  0.623771  1.012418  0.444634  0.314129
       5   -0.264797  1.517935 -0.802515  0.444634  0.626379 -0.492023
       6   -0.470146  1.910130 -0.936234  0.314129 -0.492023  0.146766

  Mechanical properties :

  Convention :                    Reuss         Voigt         Hill
  Bulk  Modulus (GPa)     =       1.22759       1.47213       1.34986
  Shear Modulus (GPa)     =      -0.93363       0.85185      -0.04089
  Velocity S-wave (km/s)  =      -0.62842       0.60027      -0.13151
  Velocity P-wave (km/s)  =       0.08541       1.05030       0.74021
  Compressibility (1/GPa) =    0.81460379
  Stress axis :                     x             y             z
  Youngs Moduli (GPa)     =      13.25364      -0.32402      -3.46933
  Poissons Ratio (x)      =                     0.19229      -1.57556
  Poissons Ratio (y)      =      -7.86511                     6.65244
  Poissons Ratio (z)      =       6.01900       0.62132

  Piezoelectric Strain Matrix: (Units=C/m**2)

  Indices      1         2         3         4         5         6
       x     0.00566  -0.00146  -0.00074  -0.00019   0.00103  -0.00035
       y    -0.00027  -0.00004  -0.00016   0.00110  -0.00002  -0.00006
       z    -0.00357  -0.00018   0.00232  -0.00011  -0.00051  -0.00011

  Piezoelectric Stress Matrix: (Units=10**-11 C/N)

  Indices      1         2         3         4         5         6
       x    -0.02664   0.75616  -0.57774   0.29795  -0.23928  -0.53791
       y     0.03725  -0.17339   0.08413   0.09545   0.06366   0.05405
       z    -0.12781   0.20454   0.10431   0.02690  -0.15113  -0.06474

  Static dielectric constant tensor :

              x         y         z
       x     4.38119  -0.06690  -0.40269
       y    -0.06690   2.72773  -0.07380
       z    -0.40269  -0.07380   2.26924

  High frequency dielectric constant tensor :

              x         y         z
       x     2.10056   0.00639  -0.04091
       y     0.00639   1.96813  -0.01435
       z    -0.04091  -0.01435   1.88289

  Static refractive indices :

    1 =    1.47712      2 =    1.65508      3 =    2.11115

  High frequency refractive indices :

    1 =    1.36882      2 =    1.40334      3 =    1.45209

  Time to end of optimisation =       2.2430 seconds

*  Defect calculation for configuration   1 :                                  *

  **** No defects for configuration number    1 ****

  Timing analysis for GULP :

  Task / Subroutine                                          Time (Seconds)
  Calculation of reciprocal space energy and derivatives          0.0801
  Calculation of real space energy and derivatives                2.1348
  Calculation and manipulation of Hessian matrix                  0.0004
  Calculation of matrix inversion                                 0.0011
  Global summation overhead                                       0.0005

  Dump file written as Na3OCl.grs

  Job Finished at 00:29.38 26th August     2021