  Job Started  at 14:21.36  2nd February   2021

  Number of CPUs =     1

  Total number of configurations input =      1

*  Input for Configuration =   1                                               *

  Formula = ONa2

  Number of irreducible atoms/shells =       3

  Total number atoms/shells =       4

  Dimensionality = 3               :  Bulk

  Symmetry :

  Crystal family                   :  Cubic
  Crystal class  (Groth - 1921)    :  Cubic Hexakisoctahedral

  Space group (centrosymmetric)    :  F M 3 M

  Patterson group                  :  F m -3 m

  Cartesian lattice vectors (Angstroms) :

        0.000000    2.775000    2.775000
        2.775000    0.000000    2.775000
        2.775000    2.775000    0.000000

  Primitive cell parameters :            Full cell parameters :

  a =   3.9244    alpha =  60.0000       a =   5.5500    alpha =  90.0000
  b =   3.9244    beta  =  60.0000       b =   5.5500    beta  =  90.0000
  c =   3.9244    gamma =  60.0000       c =   5.5500    gamma =  90.0000

  Initial volumes (Angstroms**3):

  Primitive cell =          42.738469    Full cell =         170.953875

  Temperature of configuration =   0.00     K

  Pressure of configuration =         0.000 GPa

  Fractional coordinates of asymmetric unit :

   No.  Atomic       x           y          z         Charge      Occupancy
        Label      (Frac)      (Frac)     (Frac)        (e)         (Frac)
      1 O     c    0.000000    0.000000    0.000000     0.18300    1.000000
      2 Na    c    0.250000    0.250000    0.250000     1.00000    1.000000
      3 O     s    0.000000    0.000000    0.000000    -2.18300    1.000000

  Constraints :

  Constraint no.      Unconstrained     Constrained    Coefficient    Offset
                         Variable         Variable
           1              Strain 1        Strain 2       1.00000      0.0000
           2              Strain 1        Strain 3       1.00000      0.0000

*  General input information                                                   *

  Species output for all configurations :

  Species    Type    Atomic    Atomic    Charge       Radii (Angs)     Library
                     Number     Mass       (e)     Cova   Ionic  VDW   Symbol
    Na       Core       11      22.99   1.000000   0.970  0.000  2.300
    O        Core        8      16.00   0.183000   0.730  0.000  1.360
    O        Shell       8       0.00  -2.183000   0.730  0.000  1.360
    Cl       Core       17      35.45   1.485000   0.990  0.000  0.000
    Cl       Shell      17       0.00  -2.485000   0.990  0.000  0.000
    Mg       Core       12      24.31   0.415000   1.100  0.000  0.000
    Mg       Shell      12       0.00   1.585000   1.100  0.000  0.000
    Ca       Core       20      40.08  -1.135000   0.990  0.000  0.000
    Ca       Shell      20       0.00   3.135000   0.990  0.000  0.000
    Sr       Core       38      87.62  -1.251000   1.120  0.000  0.000
    Sr       Shell      38       0.00   3.251000   1.120  0.000  0.000
    Ba       Core       56     137.33  -7.203000   1.340  0.000  0.000
    Ba       Shell      56       0.00   9.203000   1.340  0.000  0.000

  Lattice summation method               =    Ewald          (3-D)
                                         =    Parry          (2-D)
                                         =    Saunders et al (1-D)
  Accuracy factor for lattice sums       =   12.000

  Analytic derivatives to be used

  Time limit = Infinity

  Maximum range for interatomic potentials =    100000.000000 Angstroms

  General interatomic potentials :

Atom  Types   Potential      Parameter       Value         Units   Cutoffs(Ang)
  1     2                                                            Min /  Max
O    c O    s Spring (c-s)  Spring k 2       593.71600    eV*Ang^-2 0.000  0.800
                            Spring k 4       0.0000000    eV*Ang^-4
Cl   c Cl   s Spring (c-s)  Spring k 2       29.380000    eV*Ang^-2 0.000  0.800
                            Spring k 4       0.0000000    eV*Ang^-4
Mg   c Mg   s Spring (c-s)  Spring k 2       361.60000    eV*Ang^-2 0.000  0.800
                            Spring k 4       0.0000000    eV*Ang^-4
Ca   c Ca   s Spring (c-s)  Spring k 2       110.20000    eV*Ang^-2 0.000  0.800
                            Spring k 4       0.0000000    eV*Ang^-4
Sr   c Sr   s Spring (c-s)  Spring k 2       71.700000    eV*Ang^-2 0.000  0.800
                            Spring k 4       0.0000000    eV*Ang^-4
Ba   c Ba   s Spring (c-s)  Spring k 2       495.20000    eV*Ang^-2 0.000  0.800
                            Spring k 4       0.0000000    eV*Ang^-4
Na   c Na   c Buckingham    Buckingham A     1788.1900    eV        0.000 12.000
                            Buckingham rho  0.15900000    Ang
                            Buckingham C     0.0000000    eV*Ang^6
Na   c O    s Buckingham    Buckingham A     588.38000    eV        0.000 12.000
                            Buckingham rho  0.33800000    Ang
                            Buckingham C     0.0000000    eV*Ang^6
Na   c Cl   s Buckingham    Buckingham A     1170.4100    eV        0.000 12.000
                            Buckingham rho  0.31500000    Ang
                            Buckingham C     0.0000000    eV*Ang^6
O    s O    s Buckingham    Buckingham A     22764.300    eV        0.000 12.000
                            Buckingham rho  0.14900000    Ang
                            Buckingham C     13.190000    eV*Ang^6
O    s Cl   s Buckingham    Buckingham A     8286.9100    eV        0.000 12.000
                            Buckingham rho  0.25900000    Ang
                            Buckingham C     62.200000    eV*Ang^6
Cl   s Cl   s Buckingham    Buckingham A     1227.2000    eV        0.000 12.000
                            Buckingham rho  0.32100000    Ang
                            Buckingham C     14.530000    eV*Ang^6
O    s Mg   s Buckingham    Buckingham A     1428.5000    eV        0.000 12.000
                            Buckingham rho  0.29450000    Ang
                            Buckingham C     0.0000000    eV*Ang^6
Mg   s Cl   s Buckingham    Buckingham A     4914.5400    eV        0.000 12.000
                            Buckingham rho  0.25700000    Ang
                            Buckingham C     0.0000000    eV*Ang^6
O    s Ca   s Buckingham    Buckingham A     1090.4000    eV        0.000 12.000
                            Buckingham rho  0.34370000    Ang
                            Buckingham C     0.0000000    eV*Ang^6
Cl   s Ca   s Buckingham    Buckingham A     2302.0000    eV        0.000 12.000
                            Buckingham rho  0.34020000    Ang
                            Buckingham C     0.0000000    eV*Ang^6
O    s Sr   s Buckingham    Buckingham A     959.10000    eV        0.000 12.000
                            Buckingham rho  0.37210000    Ang
                            Buckingham C     0.0000000    eV*Ang^6
Cl   s Sr   s Buckingham    Buckingham A     2191.0900    eV        0.000 12.000
                            Buckingham rho  0.34570000    Ang
                            Buckingham C     0.0000000    eV*Ang^6
O    s Ba   s Buckingham    Buckingham A     905.70000    eV        0.000 12.000
                            Buckingham rho  0.39760000    Ang
                            Buckingham C     0.0000000    eV*Ang^6
Cl   s Ba   s Buckingham    Buckingham A     2704.5500    eV        0.000 12.000
                            Buckingham rho  0.35280000    Ang
                            Buckingham C     0.0000000    eV*Ang^6

*  Output for configuration   1                                                *

  Components of energy :

  Interatomic potentials     =           3.83675246 eV
  Monopole - monopole (real) =          -4.11652523 eV
  Monopole - monopole (recip)=         -26.07516340 eV
  Monopole - monopole (total)=         -30.19168863 eV
  Total lattice energy :
    Primitive unit cell      =         -26.35493616 eV
    Non-primitive unit cell  =        -105.41974464 eV
  Total lattice energy (in kJmol-1):
    Primitive unit cell      =           -2542.8485 kJ/(mole unit cells)
    Non-primitive unit cell  =          -10171.3939 kJ/(mole unit cells)

  Number of variables =        1

  Maximum number of calculations  =          1000
  Maximum Hessian update interval =            10
  Maximum step size               =   1.000000000
  Maximum parameter tolerance     =   0.000010000
  Maximum function  tolerance     =   0.000010000
  Maximum gradient  tolerance     =   0.001000000
  Maximum gradient  component     =   0.010000000

  Symmetry constrained optimisation

  Symmetry used for second derivatives

  Cell parameters to be optimised using strains

  Newton-Raphson optimiser to be used

  BFGS hessian update to be used

  Lower half triangular hessian to be used

  Start of bulk optimisation :

  ** Hessian calculated **

  **** Optimisation achieved ****

  Final energy =     -26.38142313 eV
  Final Gnorm  =       0.00000081

  Components of energy :

  Interatomic potentials     =           4.38360372 eV
  Monopole - monopole (real) =          -4.19469778 eV
  Monopole - monopole (recip)=         -26.57032907 eV
  Monopole - monopole (total)=         -30.76502685 eV
  Total lattice energy :
    Primitive unit cell      =         -26.38142313 eV
    Non-primitive unit cell  =        -105.52569253 eV
  Total lattice energy (in kJmol-1):
    Primitive unit cell      =           -2545.4041 kJ/(mole unit cells)
    Non-primitive unit cell  =          -10181.6162 kJ/(mole unit cells)

  Final asymmetric unit coordinates :

   No.  Atomic        x           y           z         Radius
        Label       (Frac)      (Frac)      (Frac)       (Angs)
     1  O     c     0.000000    0.000000    0.000000    0.000000
     2  Na    c     0.250000    0.250000    0.250000    0.000000
     3  O     s     0.000000    0.000000    0.000000    0.000000

  Final Cartesian lattice vectors (Angstroms) :

        0.000000    2.723285    2.723285
        2.723285    0.000000    2.723285
        2.723285    2.723285    0.000000

  Final cell parameters and derivatives :

       a            3.851307 Angstrom     dE/de1(xx)     0.000001 eV/strain
       b            3.851307 Angstrom     dE/de2(yy)     0.000000 eV/strain
       c            3.851307 Angstrom     dE/de3(zz)     0.000000 eV/strain
       alpha       60.000000 Degrees      dE/de4(yz)     0.000000 eV/strain
       beta        60.000000 Degrees      dE/de5(xz)     0.000000 eV/strain
       gamma       60.000000 Degrees      dE/de6(xy)     0.000000 eV/strain

  Primitive cell volume =            40.393294 Angs**3

  Density of cell =      2.547993 g/cm**3

  Non-primitive lattice parameters :

  a    =     5.446570  b   =     5.446570  c    =     5.446570
  alpha=    90.000000  beta=    90.000000  gamma=    90.000000

  Non-primitive cell volume =           161.573177 Angs**3

  Final internal derivatives :

   No.  Atomic          a             b             c           Radius
        Label          (eV)          (eV)          (eV)        (eV/Angs)
      1 O     c       0.000000      0.000000      0.000000      0.000000
      2 Na    c       0.000000      0.000000      0.000000      0.000000
      3 O     s       0.000000      0.000000      0.000000      0.000000
  Maximum abs         0.000000      0.000000      0.000000      0.000000

  Comparison of initial and final structures :

  Parameter   Initial value   Final value   Difference    Units      Percent
    Volume       170.953875    161.573177    -9.380698    Angs**3     -5.49
    a              5.550000      5.446570    -0.103430    Angstroms   -1.86
    b              5.550000      5.446570    -0.103430    Angstroms   -1.86
    c              5.550000      5.446570    -0.103430    Angstroms   -1.86
    alpha         90.000000     90.000000     0.000000    Degrees      0.00
    beta          90.000000     90.000000     0.000000    Degrees      0.00
    gamma         90.000000     90.000000     0.000000    Degrees      0.00
      1 x          0.000000      0.000000     0.000000    Fractional   0.00
      1 y          0.000000      0.000000     0.000000    Fractional   0.00
      1 z          0.000000      0.000000     0.000000    Fractional   0.00
      2 x          0.250000      0.250000     0.000000    Fractional   0.00
      2 y          0.250000      0.250000     0.000000    Fractional   0.00
      2 z          0.250000      0.250000     0.000000    Fractional   0.00
      3 x          0.000000      0.000000     0.000000    Fractional   0.00
      3 y          0.000000      0.000000     0.000000    Fractional   0.00
      3 z          0.000000      0.000000     0.000000    Fractional   0.00

  Born effective charge tensors :

  Atom             x           y             z
    1 O     x      -1.9902      0.0000      0.0000
            y       0.0000     -1.9902      0.0000
            z       0.0000      0.0000     -1.9902
    2 Na    x       0.9951     -0.0000     -0.0000
            y      -0.0000      0.9951     -0.0000
            z      -0.0000     -0.0000      0.9951

  Elastic Constant Matrix: (Units=GPa)

  Indices      1         2         3         4         5         6
       1    134.1329   35.5103   35.5103   -0.0000   -0.0000   -0.0000
       2     35.5103  134.1329   35.5103   -0.0000   -0.0000    0.0000
       3     35.5103   35.5103  134.1329   -0.0000   -0.0000   -0.0000
       4     -0.0000   -0.0000   -0.0000   35.4623   -0.0000   -0.0000
       5     -0.0000   -0.0000   -0.0000   -0.0000   35.4623   -0.0000
       6     -0.0000    0.0000   -0.0000   -0.0000   -0.0000   35.4623

  Elastic Compliance Matrix: (Units=1/GPa)

  Indices      1         2         3         4         5         6
       1    0.008385 -0.001755 -0.001755  0.000000  0.000000  0.000000
       2   -0.001755  0.008385 -0.001755  0.000000  0.000000 -0.000000
       3   -0.001755 -0.001755  0.008385  0.000000 -0.000000  0.000000
       4    0.000000  0.000000  0.000000  0.028199  0.000000  0.000000
       5    0.000000  0.000000 -0.000000  0.000000  0.028199  0.000000
       6    0.000000 -0.000000  0.000000  0.000000  0.000000  0.028199

  Mechanical properties :

  Convention :                    Reuss         Voigt         Hill
  Bulk  Modulus (GPa)     =      68.38452      68.38452      68.38452
  Shear Modulus (GPa)     =      39.95029      41.00190      40.47610
  Velocity S-wave (km/s)  =       3.95969       4.01146       3.98566
  Velocity P-wave (km/s)  =       6.90971       6.94941       6.92959
  Compressibility (1/GPa) =    0.01462319
  Stress axis :                     x             y             z
  Youngs Moduli (GPa)     =     119.26664     119.26664     119.26664
  Poissons Ratio (x)      =                     0.20932       0.20932
  Poissons Ratio (y)      =       0.20932                     0.20932
  Poissons Ratio (z)      =       0.20932       0.20932

  Piezoelectric Strain Matrix: (Units=C/m**2)

  Indices      1         2         3         4         5         6
       x    -0.00000   0.00000   0.00000   0.00000   0.00000   0.00000
       y     0.00000  -0.00000  -0.00000  -0.00000   0.00000  -0.00000
       z    -0.00000  -0.00000   0.00000   0.00000  -0.00000   0.00000

  Piezoelectric Stress Matrix: (Units=10**-11 C/N)

  Indices      1         2         3         4         5         6
       x    -0.00000   0.00000   0.00000   0.00000   0.00000   0.00000
       y     0.00000  -0.00000  -0.00000  -0.00000   0.00000  -0.00000
       z    -0.00000  -0.00000   0.00000   0.00000  -0.00000   0.00000

  Static dielectric constant tensor :

              x         y         z
       x     6.56819  -0.00000  -0.00000
       y    -0.00000   6.56819  -0.00000
       z    -0.00000  -0.00000   6.56819

  High frequency dielectric constant tensor :

              x         y         z
       x     1.03583  -0.00000  -0.00000
       y    -0.00000   1.03583  -0.00000
       z    -0.00000  -0.00000   1.03583

  Static refractive indices :

    1 =    2.56285      2 =    2.56285      3 =    2.56285

  High frequency refractive indices :

    1 =    1.01776      2 =    1.01776      3 =    1.01776

  Time to end of optimisation =       0.0194 seconds

*  Defect calculation for configuration   1 :                                  *

  **** No defects for configuration number    1 ****

  Timing analysis for GULP :

  Task / Subroutine                                          Time (Seconds)
  Calculation of reciprocal space energy and derivatives          0.0002
  Calculation of reciprocal space energy using symmetry           0.0004
  Calculation of real space energy and derivatives                0.0017
  Calculation of real space energy using symmetry                 0.0089
  Symmetry generation of equivalent positions                     0.0024

  Dump file written as Na3OCl.grs

  Job Finished at 14:21.36  2nd February   2021