  Job Started  at 18:34.47  1st September  2021

  Number of CPUs =     1

  Total number of configurations input =      1

*  Input for Configuration =   1                                               *

  Formula = ClONa3

  Number of irreducible atoms/shells =       5

  Total number atoms/shells =       7

  Dimensionality = 3               :  Bulk

  Symmetry :

  Crystal family                   :  Cubic
  Crystal class  (Groth - 1921)    :  Cubic Hexakisoctahedral

  Space group (centrosymmetric)    :  P M 3 M

  Patterson group                  :  P m -3 m

  Cartesian lattice vectors (Angstroms) :

        4.504000    0.000000    0.000000
        0.000000    4.504000    0.000000
        0.000000    0.000000    4.504000

  Cell parameters (Angstroms/Degrees):

  a =       4.5040    alpha =  90.0000
  b =       4.5040    beta  =  90.0000
  c =       4.5040    gamma =  90.0000

  Initial cell volume =          91.368216 Angs**3

  Temperature of configuration =   0.00     K

  Pressure of configuration =         0.000 GPa

  Fractional coordinates of asymmetric unit :

   No.  Atomic       x           y          z         Charge      Occupancy
        Label      (Frac)      (Frac)     (Frac)        (e)         (Frac)
      1 Cl    c    0.000000    0.000000    0.000000     1.48500    1.000000
      2 O     c    0.500000    0.500000    0.500000     0.18300    1.000000
      3 Na    c    0.500000    0.500000    0.000000     1.00000    1.000000
      4 Cl    s    0.000000    0.000000    0.000000    -2.48500    1.000000
      5 O     s    0.500000    0.500000    0.500000    -2.18300    1.000000

  Constraints :

  Constraint no.      Unconstrained     Constrained    Coefficient    Offset
                         Variable         Variable
           1              Strain 1        Strain 2       1.00000      0.0000
           2              Strain 1        Strain 3       1.00000      0.0000

*  General input information                                                   *

  Species output for all configurations :

  Species    Type    Atomic    Atomic    Charge       Radii (Angs)     Library
                     Number     Mass       (e)     Cova   Ionic  VDW   Symbol
    Na       Core       11      22.99   1.000000   0.970  0.000  2.300
    O        Core        8      16.00   0.183000   0.730  0.000  1.360
    O        Shell       8       0.00  -2.183000   0.730  0.000  1.360
    Cl       Core       17      35.45   1.485000   0.990  0.000  1.650
    Cl       Shell      17       0.00  -2.485000   0.990  0.000  1.650
    Mg       Core       12      24.31   0.415000   1.100  0.000  0.000
    Mg       Shell      12       0.00   1.585000   1.100  0.000  0.000
    Ca       Core       20      40.08  -1.135000   0.990  0.000  0.000
    Ca       Shell      20       0.00   3.135000   0.990  0.000  0.000
    Sr       Core       38      87.62  -1.251000   1.120  0.000  0.000
    Sr       Shell      38       0.00   3.251000   1.120  0.000  0.000
    Ba       Core       56     137.33  -7.203000   1.340  0.000  0.000
    Ba       Shell      56       0.00   9.203000   1.340  0.000  0.000
    Al       Core       13      26.98   3.000000   1.350  0.000  0.000
    Ga       Core       31      69.72   3.000000   1.220  0.000  0.000

  Lattice summation method               =    Ewald          (3-D)
                                         =    Parry          (2-D)
                                         =    Saunders et al (1-D)
  Accuracy factor for lattice sums       =   12.000

  Analytic derivatives to be used

  Time limit = Infinity

  Maximum range for interatomic potentials =    100000.000000 Angstroms

  General interatomic potentials :

Atom  Types   Potential      Parameter       Value         Units   Cutoffs(Ang)
  1     2                                                            Min /  Max
O    c O    s Spring (c-s)  Spring k 2       593.71600    eV*Ang^-2 0.000  0.800
                            Spring k 4       0.0000000    eV*Ang^-4
Cl   c Cl   s Spring (c-s)  Spring k 2       29.380000    eV*Ang^-2 0.000  0.800
                            Spring k 4       0.0000000    eV*Ang^-4
Mg   c Mg   s Spring (c-s)  Spring k 2       361.60000    eV*Ang^-2 0.000  0.800
                            Spring k 4       0.0000000    eV*Ang^-4
Ca   c Ca   s Spring (c-s)  Spring k 2       110.20000    eV*Ang^-2 0.000  0.800
                            Spring k 4       0.0000000    eV*Ang^-4
Sr   c Sr   s Spring (c-s)  Spring k 2       71.700000    eV*Ang^-2 0.000  0.800
                            Spring k 4       0.0000000    eV*Ang^-4
Ba   c Ba   s Spring (c-s)  Spring k 2       495.20000    eV*Ang^-2 0.000  0.800
                            Spring k 4       0.0000000    eV*Ang^-4
Na   c Na   c Buckingham    Buckingham A     1788.1900    eV        0.000 12.000
                            Buckingham rho  0.15900000    Ang
                            Buckingham C     0.0000000    eV*Ang^6
Na   c O    s Buckingham    Buckingham A     588.38000    eV        0.000 12.000
                            Buckingham rho  0.33800000    Ang
                            Buckingham C     0.0000000    eV*Ang^6
Na   c Cl   s Buckingham    Buckingham A     1170.4100    eV        0.000 12.000
                            Buckingham rho  0.31500000    Ang
                            Buckingham C     0.0000000    eV*Ang^6
O    s O    s Buckingham    Buckingham A     22764.300    eV        0.000 12.000
                            Buckingham rho  0.14900000    Ang
                            Buckingham C     13.190000    eV*Ang^6
O    s Cl   s Buckingham    Buckingham A     8286.9100    eV        0.000 12.000
                            Buckingham rho  0.25900000    Ang
                            Buckingham C     62.200000    eV*Ang^6
Cl   s Cl   s Buckingham    Buckingham A     1227.2000    eV        0.000 12.000
                            Buckingham rho  0.32100000    Ang
                            Buckingham C     14.530000    eV*Ang^6
O    s Mg   s Buckingham    Buckingham A     1428.5000    eV        0.000 12.000
                            Buckingham rho  0.29450000    Ang
                            Buckingham C     0.0000000    eV*Ang^6
Mg   s Cl   s Buckingham    Buckingham A     4914.5400    eV        0.000 12.000
                            Buckingham rho  0.25700000    Ang
                            Buckingham C     0.0000000    eV*Ang^6
O    s Ca   s Buckingham    Buckingham A     1090.4000    eV        0.000 12.000
                            Buckingham rho  0.34370000    Ang
                            Buckingham C     0.0000000    eV*Ang^6
Cl   s Ca   s Buckingham    Buckingham A     2302.0000    eV        0.000 12.000
                            Buckingham rho  0.34020000    Ang
                            Buckingham C     0.0000000    eV*Ang^6
O    s Sr   s Buckingham    Buckingham A     959.10000    eV        0.000 12.000
                            Buckingham rho  0.37210000    Ang
                            Buckingham C     0.0000000    eV*Ang^6
Cl   s Sr   s Buckingham    Buckingham A     2191.0900    eV        0.000 12.000
                            Buckingham rho  0.34570000    Ang
                            Buckingham C     0.0000000    eV*Ang^6
O    s Ba   s Buckingham    Buckingham A     905.70000    eV        0.000 12.000
                            Buckingham rho  0.39760000    Ang
                            Buckingham C     0.0000000    eV*Ang^6
Cl   s Ba   s Buckingham    Buckingham A     2704.5500    eV        0.000 12.000
                            Buckingham rho  0.35280000    Ang
                            Buckingham C     0.0000000    eV*Ang^6
Al   c O    s Buckingham    Buckingham A     1725.0000    eV        0.000 12.000
                            Buckingham rho  0.28970000    Ang
                            Buckingham C     0.0000000    eV*Ang^6
Al   c Cl   s Buckingham    Buckingham A     1736.1200    eV        0.000 12.000
                            Buckingham rho  0.29170000    Ang
                            Buckingham C     0.0000000    eV*Ang^6
Ga   c O    s Buckingham    Buckingham A     2901.1200    eV        0.000 12.000
                            Buckingham rho  0.27420000    Ang
                            Buckingham C     0.0000000    eV*Ang^6
Ga   c Cl   s Buckingham    Buckingham A     924.20000    eV        0.000 12.000
                            Buckingham rho  0.34280000    Ang
                            Buckingham C     0.0000000    eV*Ang^6

*  Output for configuration   1                                                *

  Components of energy :

  Interatomic potentials     =           4.94315381 eV
  Monopole - monopole (real) =         -10.03624526 eV
  Monopole - monopole (recip)=         -29.53581274 eV
  Monopole - monopole (total)=         -39.57205800 eV
  Total lattice energy       =         -34.62890419 eV
  Total lattice energy       =           -3341.1599 kJ/(mole unit cells)

  Number of variables =        1

  Maximum number of calculations  =          1000
  Maximum Hessian update interval =            10
  Maximum step size               =   1.000000000
  Maximum parameter tolerance     =   0.000010000
  Maximum function  tolerance     =   0.000010000
  Maximum gradient  tolerance     =   0.001000000
  Maximum gradient  component     =   0.010000000

  Symmetry constrained optimisation

  Symmetry used for second derivatives

  Cell parameters to be optimised using strains

  Newton-Raphson optimiser to be used

  BFGS hessian update to be used

  Lower half triangular hessian to be used

  Start of bulk optimisation :

  ** Hessian calculated **

  **** Optimisation achieved ****

  Final energy =     -34.67767136 eV
  Final Gnorm  =       0.00000010

  Components of energy :

  Interatomic potentials     =           5.77546103 eV
  Monopole - monopole (real) =         -10.25970290 eV
  Monopole - monopole (recip)=         -30.19342950 eV
  Monopole - monopole (total)=         -40.45313239 eV
  Total lattice energy       =         -34.67767136 eV
  Total lattice energy       =           -3345.8652 kJ/(mole unit cells)

  Final asymmetric unit coordinates :

   No.  Atomic        x           y           z         Radius
        Label       (Frac)      (Frac)      (Frac)       (Angs)
     1  Cl    c     0.000000    0.000000    0.000000    0.000000
     2  O     c     0.500000    0.500000    0.500000    0.000000
     3  Na    c     0.500000    0.500000    0.000000    0.000000
     4  Cl    s     0.000000    0.000000    0.000000    0.000000
     5  O     s     0.500000    0.500000    0.500000    0.000000

  Final Cartesian lattice vectors (Angstroms) :

        4.405902    0.000000    0.000000
        0.000000    4.405902    0.000000
        0.000000    0.000000    4.405902

  Final cell parameters and derivatives :

       a            4.405902 Angstrom     dE/de1(xx)     0.000000 eV/strain
       b            4.405902 Angstrom     dE/de2(yy)     0.000000 eV/strain
       c            4.405902 Angstrom     dE/de3(zz)     0.000000 eV/strain
       alpha       90.000000 Degrees      dE/de4(yz)     0.000000 eV/strain
[...]
    355 y         13.217707     13.217202    -0.000505    Cartesian   -0.00
    355 z          0.000000      0.000000     0.000000    Cartesian    0.00
    356 x          4.405902      4.402899    -0.003003    Cartesian   -0.07
    356 y          8.811805      8.814386     0.002581    Cartesian    0.03
    356 z          8.811805      8.819527     0.007723    Cartesian    0.09
    357 x         -4.405902     -4.405799     0.000104    Cartesian   -0.00
    357 y         -8.811805     -8.804312     0.007493    Cartesian   -0.09
    357 z          4.405902      4.402000    -0.003902    Cartesian   -0.09
    358 x          2.202951      2.203561     0.000610    Cartesian    0.03
    358 y          6.608853      6.617008     0.008154    Cartesian    0.12
    358 z         11.014756     11.011698    -0.003058    Cartesian   -0.03
    359 x          2.202951      2.202446    -0.000505    Cartesian   -0.02
    359 y        -11.014756    -11.010442     0.004314    Cartesian   -0.04
    359 z         -2.202951     -2.203206    -0.000255    Cartesian    0.01
    360 x         11.014756     11.015809     0.001053    Cartesian    0.01
    360 y         -2.202951     -2.203493    -0.000541    Cartesian    0.02
    360 z          6.608853      6.609879     0.001026    Cartesian    0.02
    361 x          4.405902      4.401738    -0.004165    Cartesian   -0.09
    361 y         13.217707     13.218282     0.000575    Cartesian    0.00
    361 z          0.000000      0.000000     0.000000    Cartesian    0.00
    362 x          8.811805      8.803049    -0.008755    Cartesian   -0.10
    362 y         -8.811805     -8.814264    -0.002459    Cartesian    0.03
    362 z          0.000000      0.000000     0.000000    Cartesian    0.00
    363 x          6.608853      6.608988     0.000134    Cartesian    0.00
    363 y         -2.202951     -2.203938    -0.000987    Cartesian    0.04
    363 z         11.014756     11.016407     0.001651    Cartesian    0.01
    364 x         -2.202951     -2.202200     0.000751    Cartesian   -0.03
    364 y        -11.014756    -11.013326     0.001430    Cartesian   -0.01
    364 z         -2.202951     -2.202298     0.000653    Cartesian   -0.03
    365 x         11.014756     11.015039     0.000283    Cartesian    0.00
    365 y         -6.608853     -6.609548    -0.000695    Cartesian    0.01
    365 z         -2.202951     -2.202936     0.000015    Cartesian   -0.00
    366 x         -6.608853     -6.606849     0.002004    Cartesian   -0.03
    366 y         -6.608853     -6.606849     0.002004    Cartesian   -0.03
    366 z          6.608853      6.605121    -0.003732    Cartesian   -0.06
    367 x          0.000000     -0.004262    -0.004262    Cartesian    0.00
    367 y         13.217707     13.217365    -0.000342    Cartesian   -0.00
    367 z          4.405902      4.405549    -0.000353    Cartesian   -0.01
    368 x          8.811805      8.810945    -0.000860    Cartesian   -0.01
    368 y         -4.405902     -4.415238    -0.009336    Cartesian    0.21
    368 z          8.811805      8.814317     0.002513    Cartesian    0.03
    369 x          6.608853      6.608698    -0.000155    Cartesian   -0.00
    369 y         11.014756     11.015026     0.000271    Cartesian    0.00
    369 z          6.608853      6.610278     0.001425    Cartesian    0.02
    370 x          4.405902      4.401086    -0.004817    Cartesian   -0.11
    370 y         13.217707     13.218141     0.000434    Cartesian    0.00
    370 z          4.405902      4.405805    -0.000098    Cartesian   -0.00
    371 x          0.000000     -0.005139    -0.005139    Cartesian    0.00
    371 y          0.000000     -0.005139    -0.005139    Cartesian    0.00
    371 z         13.217707     13.220166     0.002459    Cartesian    0.02
    372 x          0.000000     -0.004193    -0.004193    Cartesian    0.00
    372 y         -8.811805     -8.810963     0.000841    Cartesian   -0.01
    372 z          8.811805      8.806256    -0.005548    Cartesian   -0.06
    373 x          8.811805      8.804358    -0.007446    Cartesian   -0.08
    373 y         -8.811805     -8.814200    -0.002396    Cartesian    0.03
    373 z          4.405902      4.404571    -0.001332    Cartesian   -0.03
    374 x         13.217707     13.216217    -0.001490    Cartesian   -0.01
    374 y         -4.405902     -4.410800    -0.004897    Cartesian    0.11
    374 z          0.000000      0.000000     0.000000    Cartesian    0.00
    375 x          2.202951      2.203247     0.000296    Cartesian    0.01
    375 y         -6.608853     -6.609312    -0.000459    Cartesian    0.01
    375 z         11.014756     11.011530    -0.003226    Cartesian   -0.03
    376 x          6.608853      6.608887     0.000034    Cartesian    0.00
    376 y          6.608853      6.608887     0.000034    Cartesian    0.00
    376 z         11.014756     11.016680     0.001925    Cartesian    0.02
    377 x          6.608853      6.607529    -0.001324    Cartesian   -0.02
    377 y        -11.014756    -11.014146     0.000609    Cartesian   -0.01
    377 z         -2.202951     -2.202415     0.000536    Cartesian   -0.02
    378 x          0.000000     -0.003896    -0.003896    Cartesian    0.00
    378 y          4.405902      4.404712    -0.001190    Cartesian   -0.03
    378 z         13.217707     13.223761     0.006054    Cartesian    0.05
    379 x          4.405902      4.400407    -0.005495    Cartesian   -0.12
    379 y         -8.811805     -8.812032    -0.000228    Cartesian    0.00
    379 z          8.811805      8.807045    -0.004760    Cartesian   -0.05
    380 x         -2.202951     -2.203729    -0.000778    Cartesian    0.04
    380 y         -6.608853     -6.609549    -0.000696    Cartesian    0.01
    380 z         11.014756     11.015599     0.000843    Cartesian    0.01
    381 x          2.202951      2.202698    -0.000253    Cartesian   -0.01
    381 y        -11.014756    -11.013235     0.001521    Cartesian   -0.01
    381 z          6.608853      6.606690    -0.002164    Cartesian   -0.03
    382 x          4.405902      4.405454    -0.000448    Cartesian   -0.01
    382 y          4.405902      4.405454    -0.000448    Cartesian   -0.01
    382 z         13.217707     13.225598     0.007891    Cartesian    0.06
    383 x          8.811805      8.816001     0.004197    Cartesian    0.05
    383 y          8.811805      8.816001     0.004197    Cartesian    0.05
    383 z          8.811805      8.818086     0.006282    Cartesian    0.07
    384 x         13.217707     13.216677    -0.001030    Cartesian   -0.01
    384 y         -4.405902     -4.410690    -0.004787    Cartesian    0.11
    384 z          4.405902      4.406237     0.000335    Cartesian    0.01
    385 x         -8.811805     -8.808701     0.003103    Cartesian   -0.04
    385 y         -8.811805     -8.808701     0.003103    Cartesian   -0.04
    385 z          0.000000      0.000000     0.000000    Cartesian    0.00
    386 x         11.014756     11.014242    -0.000514    Cartesian   -0.00
    386 y         11.014756     11.014242    -0.000514    Cartesian   -0.00
    386 z         -2.202951     -2.203056    -0.000104    Cartesian    0.00
    387 x         -2.202951     -2.202816     0.000135    Cartesian   -0.01
    387 y        -11.014756    -11.014478     0.000277    Cartesian   -0.00
    387 z          6.608853      6.608616    -0.000238    Cartesian   -0.00
    388 x         11.014756     11.015221     0.000465    Cartesian    0.00
    388 y         -6.608853     -6.610231    -0.001378    Cartesian    0.02
    388 z          6.608853      6.608947     0.000094    Cartesian    0.00
    389 x          0.000000     -0.000979    -0.000979    Cartesian    0.00
    389 y         -4.405902     -4.409540    -0.003637    Cartesian    0.08
    389 z         13.217707     13.217536    -0.000171    Cartesian   -0.00
    390 x          0.000000     -0.002113    -0.002113    Cartesian    0.00
    390 y        -13.217707    -13.215913     0.001794    Cartesian   -0.01
    390 z          0.000000      0.000000     0.000000    Cartesian    0.00
    391 x          8.811805      8.810691    -0.001114    Cartesian   -0.01
    391 y         13.217707     13.218951     0.001244    Cartesian    0.01
    391 z          0.000000      0.000000     0.000000    Cartesian    0.00
    392 x         -4.405902     -4.406847    -0.000944    Cartesian    0.02
    392 y         -8.811805     -8.811282     0.000522    Cartesian   -0.01
    392 z          8.811805      8.806473    -0.005332    Cartesian   -0.06
    393 x          2.202951      2.203096     0.000145    Cartesian    0.01
    393 y         15.420658     15.416181    -0.004477    Cartesian   -0.03
    393 z         -2.202951     -2.195947     0.007004    Cartesian   -0.32
    394 x         -6.608853     -6.608395     0.000459    Cartesian   -0.01
    394 y        -11.014756    -11.014156     0.000600    Cartesian   -0.01
    394 z         -2.202951     -2.202170     0.000781    Cartesian   -0.04
    395 x          6.608853      6.607943    -0.000910    Cartesian   -0.01
    395 y         -6.608853     -6.608618     0.000236    Cartesian   -0.00
    395 z         11.014756     11.015023     0.000267    Cartesian    0.00
    396 x          4.405902      4.401408    -0.004494    Cartesian   -0.10
    396 y        -13.217707    -13.217017     0.000690    Cartesian   -0.01
    396 z          0.000000      0.000000     0.000000    Cartesian    0.00
    397 x          4.405902      4.401151    -0.004752    Cartesian   -0.11
    397 y         -4.405902     -4.409421    -0.003519    Cartesian    0.08
    397 z         13.217707     13.218994     0.001287    Cartesian    0.01
    398 x         -8.811805     -8.809534     0.002271    Cartesian   -0.03
    398 y         -8.811805     -8.809534     0.002271    Cartesian   -0.03
    398 z          4.405902      4.403550    -0.002352    Cartesian   -0.05
    399 x         15.420658     15.419910    -0.000748    Cartesian   -0.00
    399 y         -2.202951     -2.202575     0.000376    Cartesian   -0.02
    399 z         -2.202951     -2.203930    -0.000979    Cartesian    0.04
    400 x          2.202951      2.202050    -0.000901    Cartesian   -0.04
    400 y         11.014756     11.011092    -0.003664    Cartesian   -0.03
    400 z         11.014756     11.017004     0.002248    Cartesian    0.02
    401 x          6.608853      6.608007    -0.000846    Cartesian   -0.01
    401 y        -11.014756    -11.014250     0.000506    Cartesian   -0.00
    401 z          6.608853      6.608671    -0.000183    Cartesian   -0.00
    402 x          0.000000     -0.002848    -0.002848    Cartesian    0.00
    402 y        -13.217707    -13.214990     0.002717    Cartesian   -0.02
    402 z          4.405902      4.404064    -0.001838    Cartesian   -0.04
    403 x          8.811805      8.810814    -0.000991    Cartesian   -0.01
    403 y         13.217707     13.219780     0.002073    Cartesian    0.02
    403 z          4.405902      4.407311     0.001409    Cartesian    0.03
    404 x          0.000000     -0.005016    -0.005016    Cartesian    0.00
    404 y         13.217707     13.216928    -0.000779    Cartesian   -0.01
    404 z          8.811805      8.812514     0.000710    Cartesian    0.01
    405 x         11.014756     11.015882     0.001126    Cartesian    0.01
    405 y         -2.202951     -2.203816    -0.000865    Cartesian    0.04
    405 z         11.014756     11.014710    -0.000045    Cartesian   -0.00
    406 x          4.405902      4.402744    -0.003158    Cartesian   -0.07
    406 y        -13.217707    -13.216436     0.001271    Cartesian   -0.01
    406 z          4.405902      4.404795    -0.001107    Cartesian   -0.03
    407 x          0.000000     -0.000725    -0.000725    Cartesian    0.00
    407 y          8.811805      8.811215    -0.000590    Cartesian   -0.01
    407 z         13.217707     13.218998     0.001291    Cartesian    0.01
    408 x          4.405902      4.404651    -0.001252    Cartesian   -0.03
    408 y         13.217707     13.218797     0.001090    Cartesian    0.01
    408 z          8.811805      8.811686    -0.000119    Cartesian   -0.00
    409 x         -4.405902     -4.408931    -0.003029    Cartesian    0.07
    409 y         -4.405902     -4.408931    -0.003029    Cartesian    0.07
    409 z         13.217707     13.215063    -0.002644    Cartesian   -0.02
    410 x         -4.405902     -4.407521    -0.001619    Cartesian    0.04
    410 y        -13.217707    -13.214824     0.002883    Cartesian   -0.02
    410 z          0.000000      0.000000     0.000000    Cartesian    0.00
    411 x          8.811805      8.806580    -0.005224    Cartesian   -0.06
    411 y         -8.811805     -8.815166    -0.003361    Cartesian    0.04
    411 z          8.811805      8.810214    -0.001590    Cartesian   -0.02
    412 x          6.608853      6.608456    -0.000397    Cartesian   -0.01
    412 y         15.420658     15.419737    -0.000921    Cartesian   -0.01
    412 z         -2.202951     -2.204463    -0.001512    Cartesian    0.07
    413 x          2.202951      2.208023     0.005071    Cartesian    0.23
    413 y          2.202951      2.208023     0.005071    Cartesian    0.23
    413 z         15.420658     15.422652     0.001994    Cartesian    0.01
    414 x         11.014756     11.015874     0.001118    Cartesian    0.01
    414 y         11.014756     11.015874     0.001118    Cartesian    0.01
    414 z          6.608853      6.608638    -0.000216    Cartesian   -0.00
    415 x         -6.608853     -6.608664     0.000190    Cartesian   -0.00
    415 y         -6.608853     -6.608664     0.000190    Cartesian   -0.00
    415 z         11.014756     11.015006     0.000250    Cartesian    0.00
    416 x          4.405902      4.400713    -0.005189    Cartesian   -0.12
    416 y          8.811805      8.812630     0.000826    Cartesian    0.01
    416 z         13.217707     13.219766     0.002059    Cartesian    0.02
    417 x         13.217707     13.214730    -0.002977    Cartesian   -0.02
    417 y         -8.811805     -8.816637    -0.004832    Cartesian    0.05
    417 z          0.000000      0.000000     0.000000    Cartesian    0.00
    418 x          2.202951      2.202842    -0.000110    Cartesian   -0.00
    418 y         15.420658     15.416399    -0.004259    Cartesian   -0.03
    418 z          6.608853      6.612402     0.003549    Cartesian    0.05
    419 x          2.202951      2.202069    -0.000882    Cartesian   -0.04
    419 y         -2.202951     -2.205944    -0.002993    Cartesian    0.14
    419 z         15.420658     15.419635    -0.001023    Cartesian   -0.01
    420 x          6.608853      6.608685    -0.000169    Cartesian   -0.00
    420 y         11.014756     11.016566     0.001810    Cartesian    0.02
    420 z         11.014756     11.014294    -0.000462    Cartesian   -0.00
    421 x         11.014756     11.014288    -0.000468    Cartesian   -0.00
    421 y        -11.014756    -11.014873    -0.000117    Cartesian    0.00
    421 z         -2.202951     -2.202585     0.000366    Cartesian   -0.02
    422 x         -6.608853     -6.608667     0.000187    Cartesian   -0.00
    422 y        -11.014756    -11.013682     0.001073    Cartesian   -0.01
    422 z          6.608853      6.608557    -0.000296    Cartesian   -0.00
    423 x         -4.405902     -4.406342    -0.000440    Cartesian    0.01
    423 y        -13.217707    -13.215320     0.002387    Cartesian   -0.02
    423 z          4.405902      4.405074    -0.000828    Cartesian   -0.02
    424 x         13.217707     13.216137    -0.001570    Cartesian   -0.01
    424 y         -4.405902     -4.409443    -0.003540    Cartesian    0.08
    424 z          8.811805      8.812772     0.000967    Cartesian    0.01

  Time to end of optimisation  =       67.4453 seconds

  Timing analysis for GULP :

  Task / Subroutine                                          Time (Seconds)
  Calculation of reciprocal space energy and derivatives          0.0002
  Calculation of reciprocal space energy using symmetry           0.0004
  Calculation of real space energy and derivatives                0.0012
  Calculation of real space energy using symmetry                 0.0038
  Calculation for region 1 energy and derivatives (2-b)          20.8262
  Calculation for region 2a energy                               26.4199
  Calculation and manipulation of Hessian matrix                 18.3533
  Calculation of matrix inversion                                 1.5978
  Symmetry generation of equivalent positions                     0.0016

  Dump file written as Na3OCl.grs

  Job Finished at 18:35.55  1st September  2021