  Job Started  at 23:06.58 25th August     2021

  Number of CPUs =     1

  Total number of configurations input =      1

*  Input for Configuration =   1                                               *

  Formula = ClONa3

  Number of irreducible atoms/shells =       5

  Total number atoms/shells =       7

  Dimensionality = 3               :  Bulk

  Symmetry :

  Crystal family                   :  Cubic
  Crystal class  (Groth - 1921)    :  Cubic Hexakisoctahedral

  Space group (centrosymmetric)    :  P M 3 M

  Patterson group                  :  P m -3 m

  Cartesian lattice vectors (Angstroms) :

        4.504000    0.000000    0.000000
        0.000000    4.504000    0.000000
        0.000000    0.000000    4.504000

  Cell parameters (Angstroms/Degrees):

  a =       4.5040    alpha =  90.0000
  b =       4.5040    beta  =  90.0000
  c =       4.5040    gamma =  90.0000

  Initial cell volume =          91.368216 Angs**3

  Temperature of configuration =   0.00     K

  Pressure of configuration =         0.000 GPa

  Fractional coordinates of asymmetric unit :

   No.  Atomic       x           y          z         Charge      Occupancy
        Label      (Frac)      (Frac)     (Frac)        (e)         (Frac)
      1 Cl    c    0.000000    0.000000    0.000000     1.48500    1.000000
      2 O     c    0.500000    0.500000    0.500000     0.18300    1.000000
      3 Na    c    0.500000    0.500000    0.000000     1.00000    1.000000
      4 Cl    s    0.000000    0.000000    0.000000    -2.48500    1.000000
      5 O     s    0.500000    0.500000    0.500000    -2.18300    1.000000

  Constraints :

  Constraint no.      Unconstrained     Constrained    Coefficient    Offset
                         Variable         Variable
           1              Strain 1        Strain 2       1.00000      0.0000
           2              Strain 1        Strain 3       1.00000      0.0000

*  General input information                                                   *

  Species output for all configurations :

  Species    Type    Atomic    Atomic    Charge       Radii (Angs)     Library
                     Number     Mass       (e)     Cova   Ionic  VDW   Symbol
    Na       Core       11      22.99   1.000000   0.970  0.000  2.300
    O        Core        8      16.00   0.183000   0.730  0.000  1.360
    O        Shell       8       0.00  -2.183000   0.730  0.000  1.360
    Cl       Core       17      35.45   1.485000   0.990  0.000  1.650
    Cl       Shell      17       0.00  -2.485000   0.990  0.000  1.650
    Mg       Core       12      24.31   0.415000   1.100  0.000  0.000
    Mg       Shell      12       0.00   1.585000   1.100  0.000  0.000
    Ca       Core       20      40.08  -1.135000   0.990  0.000  0.000
    Ca       Shell      20       0.00   3.135000   0.990  0.000  0.000
    Sr       Core       38      87.62  -1.251000   1.120  0.000  0.000
    Sr       Shell      38       0.00   3.251000   1.120  0.000  0.000
    Ba       Core       56     137.33  -7.203000   1.340  0.000  0.000
    Ba       Shell      56       0.00   9.203000   1.340  0.000  0.000
    Al       Core       13      26.98   3.000000   1.350  0.000  0.000

  Lattice summation method               =    Ewald          (3-D)
                                         =    Parry          (2-D)
                                         =    Saunders et al (1-D)
  Accuracy factor for lattice sums       =   12.000

  Analytic derivatives to be used

  Time limit = Infinity

  Maximum range for interatomic potentials =    100000.000000 Angstroms

  General interatomic potentials :

Atom  Types   Potential      Parameter       Value         Units   Cutoffs(Ang)
  1     2                                                            Min /  Max
O    c O    s Spring (c-s)  Spring k 2       593.71600    eV*Ang^-2 0.000  0.800
                            Spring k 4       0.0000000    eV*Ang^-4
Cl   c Cl   s Spring (c-s)  Spring k 2       29.380000    eV*Ang^-2 0.000  0.800
                            Spring k 4       0.0000000    eV*Ang^-4
Mg   c Mg   s Spring (c-s)  Spring k 2       361.60000    eV*Ang^-2 0.000  0.800
                            Spring k 4       0.0000000    eV*Ang^-4
Ca   c Ca   s Spring (c-s)  Spring k 2       110.20000    eV*Ang^-2 0.000  0.800
                            Spring k 4       0.0000000    eV*Ang^-4
Sr   c Sr   s Spring (c-s)  Spring k 2       71.700000    eV*Ang^-2 0.000  0.800
                            Spring k 4       0.0000000    eV*Ang^-4
Ba   c Ba   s Spring (c-s)  Spring k 2       495.20000    eV*Ang^-2 0.000  0.800
                            Spring k 4       0.0000000    eV*Ang^-4
Na   c Na   c Buckingham    Buckingham A     1788.1900    eV        0.000 12.000
                            Buckingham rho  0.15900000    Ang
                            Buckingham C     0.0000000    eV*Ang^6
Na   c O    s Buckingham    Buckingham A     588.38000    eV        0.000 12.000
                            Buckingham rho  0.33800000    Ang
                            Buckingham C     0.0000000    eV*Ang^6
Na   c Cl   s Buckingham    Buckingham A     1170.4100    eV        0.000 12.000
                            Buckingham rho  0.31500000    Ang
                            Buckingham C     0.0000000    eV*Ang^6
O    s O    s Buckingham    Buckingham A     22764.300    eV        0.000 12.000
                            Buckingham rho  0.14900000    Ang
                            Buckingham C     13.190000    eV*Ang^6
O    s Cl   s Buckingham    Buckingham A     8286.9100    eV        0.000 12.000
                            Buckingham rho  0.25900000    Ang
                            Buckingham C     62.200000    eV*Ang^6
Cl   s Cl   s Buckingham    Buckingham A     1227.2000    eV        0.000 12.000
                            Buckingham rho  0.32100000    Ang
                            Buckingham C     14.530000    eV*Ang^6
O    s Mg   s Buckingham    Buckingham A     1428.5000    eV        0.000 12.000
                            Buckingham rho  0.29450000    Ang
                            Buckingham C     0.0000000    eV*Ang^6
Mg   s Cl   s Buckingham    Buckingham A     4914.5400    eV        0.000 12.000
                            Buckingham rho  0.25700000    Ang
                            Buckingham C     0.0000000    eV*Ang^6
O    s Ca   s Buckingham    Buckingham A     1090.4000    eV        0.000 12.000
                            Buckingham rho  0.34370000    Ang
                            Buckingham C     0.0000000    eV*Ang^6
Cl   s Ca   s Buckingham    Buckingham A     2302.0000    eV        0.000 12.000
                            Buckingham rho  0.34020000    Ang
                            Buckingham C     0.0000000    eV*Ang^6
O    s Sr   s Buckingham    Buckingham A     959.10000    eV        0.000 12.000
                            Buckingham rho  0.37210000    Ang
                            Buckingham C     0.0000000    eV*Ang^6
Cl   s Sr   s Buckingham    Buckingham A     2191.0900    eV        0.000 12.000
                            Buckingham rho  0.34570000    Ang
                            Buckingham C     0.0000000    eV*Ang^6
O    s Ba   s Buckingham    Buckingham A     905.70000    eV        0.000 12.000
                            Buckingham rho  0.39760000    Ang
                            Buckingham C     0.0000000    eV*Ang^6
Cl   s Ba   s Buckingham    Buckingham A     2704.5500    eV        0.000 12.000
                            Buckingham rho  0.35280000    Ang
                            Buckingham C     0.0000000    eV*Ang^6
Al   c O    s Buckingham    Buckingham A     1725.0000    eV        0.000 12.000
                            Buckingham rho  0.28970000    Ang
                            Buckingham C     0.0000000    eV*Ang^6
Al   c Cl   s Buckingham    Buckingham A     1736.1200    eV        0.000 12.000
                            Buckingham rho  0.29170000    Ang
                            Buckingham C     0.0000000    eV*Ang^6

*  Output for configuration   1                                                *

  Components of energy :

  Interatomic potentials     =           4.94315381 eV
  Monopole - monopole (real) =         -10.03624526 eV
  Monopole - monopole (recip)=         -29.53581274 eV
  Monopole - monopole (total)=         -39.57205800 eV
  Total lattice energy       =         -34.62890419 eV
  Total lattice energy       =           -3341.1599 kJ/(mole unit cells)

  Number of variables =        1

  Maximum number of calculations  =          1000
  Maximum Hessian update interval =            10
  Maximum step size               =   1.000000000
  Maximum parameter tolerance     =   0.000010000
  Maximum function  tolerance     =   0.000010000
  Maximum gradient  tolerance     =   0.001000000
  Maximum gradient  component     =   0.010000000

  Symmetry constrained optimisation

  Symmetry used for second derivatives

  Cell parameters to be optimised using strains

  Newton-Raphson optimiser to be used

  BFGS hessian update to be used

  Lower half triangular hessian to be used

  Start of bulk optimisation :

  ** Hessian calculated **

  **** Optimisation achieved ****

  Final energy =     -34.67767136 eV
  Final Gnorm  =       0.00000010

  Components of energy :

  Interatomic potentials     =           5.77546103 eV
  Monopole - monopole (real) =         -10.25970290 eV
  Monopole - monopole (recip)=         -30.19342950 eV
  Monopole - monopole (total)=         -40.45313239 eV
  Total lattice energy       =         -34.67767136 eV
  Total lattice energy       =           -3345.8652 kJ/(mole unit cells)

  Final asymmetric unit coordinates :

   No.  Atomic        x           y           z         Radius
        Label       (Frac)      (Frac)      (Frac)       (Angs)
     1  Cl    c     0.000000    0.000000    0.000000    0.000000
     2  O     c     0.500000    0.500000    0.500000    0.000000
     3  Na    c     0.500000    0.500000    0.000000    0.000000
     4  Cl    s     0.000000    0.000000    0.000000    0.000000
     5  O     s     0.500000    0.500000    0.500000    0.000000

  Final Cartesian lattice vectors (Angstroms) :

        4.405902    0.000000    0.000000
        0.000000    4.405902    0.000000
        0.000000    0.000000    4.405902

  Final cell parameters and derivatives :

       a            4.405902 Angstrom     dE/de1(xx)     0.000000 eV/strain
       b            4.405902 Angstrom     dE/de2(yy)     0.000000 eV/strain
       c            4.405902 Angstrom     dE/de3(zz)     0.000000 eV/strain
       alpha       90.000000 Degrees      dE/de4(yz)     0.000000 eV/strain
       beta        90.000000 Degrees      dE/de5(xz)     0.000000 eV/strain
       gamma       90.000000 Degrees      dE/de6(xy)     0.000000 eV/strain

  Primitive cell volume =            85.527266 Angs**3

  Density of cell =      2.338030 g/cm**3

  Non-primitive cell volume =            85.527266 Angs**3

  Final internal derivatives :

   No.  Atomic          a             b             c           Radius
        Label          (eV)          (eV)          (eV)        (eV/Angs)
[...]
     71 y         15.420658     15.441284     0.020626    Cartesian    0.13
     71 z          4.405902      4.409456     0.003554    Cartesian    0.08
     72 x          6.608853      6.613893     0.005039    Cartesian    0.08
     72 y         15.420658     15.428707     0.008048    Cartesian    0.05
     72 z          0.000000      0.000000     0.000000    Cartesian    0.00
     73 x          6.608853      6.610317     0.001464    Cartesian    0.02
     73 y         15.420658     15.420287    -0.000372    Cartesian   -0.00
     73 z         -2.202951     -2.203199    -0.000248    Cartesian    0.01
     74 x          2.202951      2.202951     0.000000    Cartesian    0.00
     74 y         11.014756     11.016886     0.002130    Cartesian    0.02
     74 z         11.014756     11.015806     0.001050    Cartesian    0.01
     75 x         11.014756     11.015950     0.001194    Cartesian    0.01
     75 y         11.014756     11.015950     0.001194    Cartesian    0.01
     75 z          6.608853      6.607040    -0.001814    Cartesian   -0.03
     76 x          4.405902      4.404486    -0.001416    Cartesian   -0.03
     76 y         13.217707     13.203269    -0.014438    Cartesian   -0.11
     76 z          8.811805      8.802635    -0.009170    Cartesian   -0.10
     77 x          4.405902      4.406404     0.000502    Cartesian    0.01
     77 y         11.014756     11.020583     0.005827    Cartesian    0.05
     77 z         11.014756     11.024180     0.009424    Cartesian    0.09
     78 x         13.217707     13.223039     0.005332    Cartesian    0.04
     78 y         11.014756     11.021486     0.006730    Cartesian    0.06
     78 z         -2.202951     -2.196400     0.006551    Cartesian   -0.30
     79 x          6.608853      6.610125     0.001271    Cartesian    0.02
     79 y         15.420658     15.433659     0.013001    Cartesian    0.08
     79 z          4.405902      4.406801     0.000899    Cartesian    0.02
     80 x          6.608853      6.615392     0.006538    Cartesian    0.10
     80 y          6.608853      6.615392     0.006538    Cartesian    0.10
     80 z         13.217707     13.221457     0.003751    Cartesian    0.03
     81 x          6.608853      6.608484    -0.000369    Cartesian   -0.01
     81 y         11.014756     11.011842    -0.002914    Cartesian   -0.03
     81 z         11.014756     11.011848    -0.002908    Cartesian   -0.03
     82 x          2.202951      2.202951     0.000000    Cartesian    0.00
     82 y         15.420658     15.420379    -0.000279    Cartesian   -0.00
     82 z          6.608853      6.608953     0.000100    Cartesian    0.00
     83 x          4.405902      4.404360    -0.001542    Cartesian   -0.03
     83 y          8.811805      8.802963    -0.008842    Cartesian   -0.10
     83 z         13.217707     13.195956    -0.021751    Cartesian   -0.16
     84 x          4.405902      4.406094     0.000191    Cartesian    0.00
     84 y         15.420658     15.431625     0.010967    Cartesian    0.07
     84 z          6.608853      6.617090     0.008237    Cartesian    0.12
     85 x          8.811805      8.815496     0.003691    Cartesian    0.04
     85 y         15.420658     15.437722     0.017064    Cartesian    0.11
     85 z         -2.202951     -2.205045    -0.002094    Cartesian    0.10
     86 x         11.014756     11.018652     0.003897    Cartesian    0.04
     86 y         11.014756     11.018652     0.003897    Cartesian    0.04
     86 z          8.811805      8.815174     0.003369    Cartesian    0.04
     87 x          2.202951      2.202951     0.000000    Cartesian    0.00
     87 y          2.202951      2.202951     0.000000    Cartesian    0.00
     87 z         15.420658     15.420091    -0.000567    Cartesian   -0.00
     88 x          6.608853      6.605765    -0.003088    Cartesian   -0.05
     88 y         15.420658     15.414119    -0.006539    Cartesian   -0.04
     88 z          6.608853      6.605437    -0.003416    Cartesian   -0.05
     89 x          4.405902      4.404226    -0.001676    Cartesian   -0.04
     89 y         17.623609     17.596542    -0.027067    Cartesian   -0.15
     89 z          0.000000      0.000000     0.000000    Cartesian    0.00
     90 x          8.811805      8.802727    -0.009077    Cartesian   -0.10
     90 y         13.217707     13.198804    -0.018903    Cartesian   -0.14
     90 z          8.811805      8.798956    -0.012849    Cartesian   -0.15
     91 x         13.217707     13.201104    -0.016603    Cartesian   -0.13
     91 y         13.217707     13.201104    -0.016603    Cartesian   -0.13
     91 z          0.000000      0.000000     0.000000    Cartesian    0.00
     92 x          4.405902      4.407073     0.001170    Cartesian    0.03
     92 y          2.202951      2.202951     0.000000    Cartesian    0.00
     92 z         15.420658     15.441889     0.021231    Cartesian    0.14
     93 x         13.217707     13.224171     0.006465    Cartesian    0.05
     93 y          2.202951      2.202951     0.000000    Cartesian    0.00
     93 z         11.014756     11.031423     0.016667    Cartesian    0.15
     94 x         17.623609     17.632102     0.008493    Cartesian    0.05
     94 y          2.202951      2.202951     0.000000    Cartesian    0.00
     94 z         -2.202951     -2.208591    -0.005640    Cartesian    0.26
     95 x          8.811805      8.814179     0.002374    Cartesian    0.03
     95 y         11.014756     11.025993     0.011237    Cartesian    0.10
     95 z         11.014756     11.032181     0.017426    Cartesian    0.16
     96 x         13.217707     13.223238     0.005531    Cartesian    0.04
     96 y         11.014756     11.027820     0.013064    Cartesian    0.12
     96 z          6.608853      6.618754     0.009901    Cartesian    0.15
     97 x          2.202951      2.202951     0.000000    Cartesian    0.00
     97 y         11.014756     11.027510     0.012755    Cartesian    0.12
     97 z         13.217707     13.223819     0.006112    Cartesian    0.05
     98 x          2.202951      2.202951     0.000000    Cartesian    0.00
     98 y         15.420658     15.440082     0.019424    Cartesian    0.13
     98 z          8.811805      8.816283     0.004479    Cartesian    0.05
     99 x         11.014756     11.028141     0.013386    Cartesian    0.12
     99 y         15.420658     15.444574     0.023916    Cartesian    0.16
     99 z          0.000000      0.000000     0.000000    Cartesian    0.00
    100 x          2.202951      2.202951     0.000000    Cartesian    0.00
    100 y          2.202951      2.202951     0.000000    Cartesian    0.00
    100 z         -2.202951     -1.704997     0.497954    Cartesian  -22.60
    101 x          4.405902      3.860288    -0.545614    Cartesian  -12.38
    101 y          4.405902      3.860288    -0.545614    Cartesian  -12.38
    101 z          0.000000      0.000000     0.000000    Cartesian    0.00
    102 x          2.202951      2.202951     0.000000    Cartesian    0.00
    102 y          6.608853      6.654139     0.045285    Cartesian    0.69
    102 z         -2.202951     -2.198708     0.004244    Cartesian   -0.19
    103 x          4.405902      4.280549    -0.125353    Cartesian   -2.85
    103 y          4.405902      4.280549    -0.125353    Cartesian   -2.85
    103 z          4.405902      4.258856    -0.147047    Cartesian   -3.34
    104 x          2.202951      2.202951     0.000000    Cartesian    0.00
    104 y          2.202951      2.202951     0.000000    Cartesian    0.00
    104 z          6.608853      6.586622    -0.022231    Cartesian   -0.34
    105 x          6.608853      6.592739    -0.016115    Cartesian   -0.24
    105 y          6.608853      6.592739    -0.016115    Cartesian   -0.24
    105 z         -2.202951     -2.191929     0.011022    Cartesian   -0.50
    106 x          4.405902      4.411927     0.006024    Cartesian    0.14
    106 y          8.811805      8.751048    -0.060757    Cartesian   -0.69
    106 z          0.000000      0.000000     0.000000    Cartesian    0.00
    107 x          2.202951      2.202951     0.000000    Cartesian    0.00
    107 y          6.608853      6.610756     0.001903    Cartesian    0.03
    107 z          6.608853      6.604452    -0.004401    Cartesian   -0.07
    108 x          4.405902      4.408223     0.002321    Cartesian    0.05
    108 y          8.811805      8.770576    -0.041228    Cartesian   -0.47
    108 z          4.405902      4.381799    -0.024103    Cartesian   -0.55
    109 x          6.608853      6.600221    -0.008632    Cartesian   -0.13
    109 y          6.608853      6.600221    -0.008632    Cartesian   -0.13
    109 z          6.608853      6.600389    -0.008465    Cartesian   -0.13
    110 x          2.202951      2.202951     0.000000    Cartesian    0.00
    110 y         11.014756     11.032029     0.017274    Cartesian    0.16
    110 z         -2.202951     -2.199703     0.003249    Cartesian   -0.15
    111 x          4.405902      4.401634    -0.004268    Cartesian   -0.10
    111 y          4.405902      4.401634    -0.004268    Cartesian   -0.10
    111 z          8.811805      8.766534    -0.045271    Cartesian   -0.51
    112 x          8.811805      8.772302    -0.039502    Cartesian   -0.45
    112 y          8.811805      8.772302    -0.039502    Cartesian   -0.45
    112 z          0.000000      0.000000     0.000000    Cartesian    0.00
    113 x          6.608853      6.609127     0.000273    Cartesian    0.00
    113 y         11.014756     11.016109     0.001353    Cartesian    0.01
    113 z         -2.202951     -2.202573     0.000378    Cartesian   -0.02
    114 x          8.811805      8.777333    -0.034471    Cartesian   -0.39
    114 y          8.811805      8.777333    -0.034471    Cartesian   -0.39
    114 z          4.405902      4.378799    -0.027103    Cartesian   -0.62
    115 x          2.202951      2.202951     0.000000    Cartesian    0.00
    115 y          2.202951      2.202951     0.000000    Cartesian    0.00
    115 z         11.014756     11.008737    -0.006019    Cartesian   -0.05
    116 x          2.202951      2.202951     0.000000    Cartesian    0.00
    116 y         11.014756     11.014513    -0.000243    Cartesian   -0.00
    116 z          6.608853      6.609468     0.000615    Cartesian    0.01
    117 x          4.405902      4.400532    -0.005371    Cartesian   -0.12
    117 y          8.811805      8.791344    -0.020460    Cartesian   -0.23
    117 z          8.811805      8.783895    -0.027910    Cartesian   -0.32
    118 x          4.405902      4.402530    -0.003373    Cartesian   -0.08
    118 y         13.217707     13.195881    -0.021826    Cartesian   -0.17
    118 z          0.000000      0.000000     0.000000    Cartesian    0.00
    119 x          2.202951      2.202951     0.000000    Cartesian    0.00
    119 y          6.608853      6.604855    -0.003999    Cartesian   -0.06
    119 z         11.014756     11.013362    -0.001394    Cartesian   -0.01
    120 x          6.608853      6.608452    -0.000401    Cartesian   -0.01
    120 y         11.014756     11.011487    -0.003269    Cartesian   -0.03
    120 z          6.608853      6.605945    -0.002909    Cartesian   -0.04
    121 x          4.405902      4.400010    -0.005893    Cartesian   -0.13
    121 y         13.217707     13.195719    -0.021988    Cartesian   -0.17
    121 z          4.405902      4.396337    -0.009565    Cartesian   -0.22
    122 x          6.608853      6.609097     0.000244    Cartesian    0.00
    122 y          6.608853      6.609097     0.000244    Cartesian    0.00
    122 z         11.014756     11.013031    -0.001725    Cartesian   -0.02
    123 x         11.014756     11.014308    -0.000448    Cartesian   -0.00
    123 y         11.014756     11.014308    -0.000448    Cartesian   -0.00
    123 z         -2.202951     -2.202516     0.000435    Cartesian   -0.02
    124 x          8.811805      8.793389    -0.018416    Cartesian   -0.21
    124 y          8.811805      8.793389    -0.018416    Cartesian   -0.21
    124 z          8.811805      8.788261    -0.023544    Cartesian   -0.27
    125 x          8.811805      8.800885    -0.010919    Cartesian   -0.12
    125 y         13.217707     13.196921    -0.020786    Cartesian   -0.16
    125 z          0.000000      0.000000     0.000000    Cartesian    0.00
    126 x          2.202951      2.202951     0.000000    Cartesian    0.00
    126 y         15.420658     15.426827     0.006169    Cartesian    0.04
    126 z         -2.202951     -2.206955    -0.004004    Cartesian    0.18
    127 x          8.811805      8.804019    -0.007785    Cartesian   -0.09
    127 y         13.217707     13.199226    -0.018481    Cartesian   -0.14
    127 z          4.405902      4.397343    -0.008559    Cartesian   -0.19
    128 x          4.405902      4.404217    -0.001685    Cartesian   -0.04
    128 y          4.405902      4.404217    -0.001685    Cartesian   -0.04
    128 z         13.217707     13.197080    -0.020627    Cartesian   -0.16
    129 x          6.608853      6.610317     0.001464    Cartesian    0.02
    129 y         15.420658     15.420287    -0.000372    Cartesian   -0.00
    129 z         -2.202951     -2.203199    -0.000248    Cartesian    0.01
    130 x          2.202951      2.202951     0.000000    Cartesian    0.00
    130 y         11.014756     11.016889     0.002133    Cartesian    0.02
    130 z         11.014756     11.015801     0.001045    Cartesian    0.01
    131 x         11.014756     11.015950     0.001194    Cartesian    0.01
    131 y         11.014756     11.015950     0.001194    Cartesian    0.01
    131 z          6.608853      6.607038    -0.001816    Cartesian   -0.03
    132 x          4.405902      4.404367    -0.001535    Cartesian   -0.03
    132 y         13.217707     13.200641    -0.017065    Cartesian   -0.13
    132 z          8.811805      8.800864    -0.010941    Cartesian   -0.12
    133 x          6.608853      6.608483    -0.000371    Cartesian   -0.01
    133 y         11.014756     11.011840    -0.002916    Cartesian   -0.03
    133 z         11.014756     11.011847    -0.002908    Cartesian   -0.03
    134 x          2.202951      2.202951     0.000000    Cartesian    0.00
    134 y         15.420658     15.420382    -0.000276    Cartesian   -0.00
    134 z          6.608853      6.608948     0.000094    Cartesian    0.00
    135 x          4.405902      4.404283    -0.001619    Cartesian   -0.04
    135 y          8.811805      8.801485    -0.010319    Cartesian   -0.12
    135 z         13.217707     13.192990    -0.024717    Cartesian   -0.19
    136 x          2.202951      2.202951     0.000000    Cartesian    0.00
    136 y          2.202951      2.202951     0.000000    Cartesian    0.00
    136 z         15.420658     15.420098    -0.000560    Cartesian   -0.00
    137 x          6.608853      6.605760    -0.003093    Cartesian   -0.05
    137 y         15.420658     15.414112    -0.006547    Cartesian   -0.04
    137 z          6.608853      6.605433    -0.003421    Cartesian   -0.05
    138 x          4.405902      4.403944    -0.001958    Cartesian   -0.04
    138 y         17.623609     17.592685    -0.030924    Cartesian   -0.18
    138 z          0.000000      0.000000     0.000000    Cartesian    0.00
    139 x          8.811805      8.801312    -0.010492    Cartesian   -0.12
    139 y         13.217707     13.196168    -0.021539    Cartesian   -0.16
    139 z          8.811805      8.797119    -0.014685    Cartesian   -0.17
    140 x         13.217707     13.198528    -0.019179    Cartesian   -0.15
    140 y         13.217707     13.198528    -0.019179    Cartesian   -0.15
    140 z          0.000000      0.000000     0.000000    Cartesian    0.00

  Time to end of optimisation  =       12.2185 seconds

  Timing analysis for GULP :

  Task / Subroutine                                          Time (Seconds)
  Calculation of reciprocal space energy and derivatives          0.0002
  Calculation of reciprocal space energy using symmetry           0.0004
  Calculation of real space energy and derivatives                0.0013
  Calculation of real space energy using symmetry                 0.0040
  Calculation for region 1 energy and derivatives (2-b)           8.3005
  Calculation for region 2a energy                                3.3496
  Calculation and manipulation of Hessian matrix                  0.4017
  Calculation of matrix inversion                                 0.0216
  Symmetry generation of equivalent positions                     0.0016

  Dump file written as Na3OCl.grs

  Job Finished at 23:07.10 25th August     2021