  Job Started  at 23:11.58 25th August     2021

  Number of CPUs =     1

  Total number of configurations input =      1

*  Input for Configuration =   1                                               *

  Formula = ClONa3

  Number of irreducible atoms/shells =       5

  Total number atoms/shells =       7

  Dimensionality = 3               :  Bulk

  Symmetry :

  Crystal family                   :  Cubic
  Crystal class  (Groth - 1921)    :  Cubic Hexakisoctahedral

  Space group (centrosymmetric)    :  P M 3 M

  Patterson group                  :  P m -3 m

  Cartesian lattice vectors (Angstroms) :

        4.504000    0.000000    0.000000
        0.000000    4.504000    0.000000
        0.000000    0.000000    4.504000

  Cell parameters (Angstroms/Degrees):

  a =       4.5040    alpha =  90.0000
  b =       4.5040    beta  =  90.0000
  c =       4.5040    gamma =  90.0000

  Initial cell volume =          91.368216 Angs**3

  Temperature of configuration =   0.00     K

  Pressure of configuration =         0.000 GPa

  Fractional coordinates of asymmetric unit :

   No.  Atomic       x           y          z         Charge      Occupancy
        Label      (Frac)      (Frac)     (Frac)        (e)         (Frac)
      1 Cl    c    0.000000    0.000000    0.000000     1.48500    1.000000
      2 O     c    0.500000    0.500000    0.500000     0.18300    1.000000
      3 Na    c    0.500000    0.500000    0.000000     1.00000    1.000000
      4 Cl    s    0.000000    0.000000    0.000000    -2.48500    1.000000
      5 O     s    0.500000    0.500000    0.500000    -2.18300    1.000000

  Constraints :

  Constraint no.      Unconstrained     Constrained    Coefficient    Offset
                         Variable         Variable
           1              Strain 1        Strain 2       1.00000      0.0000
           2              Strain 1        Strain 3       1.00000      0.0000

*  General input information                                                   *

  Species output for all configurations :

  Species    Type    Atomic    Atomic    Charge       Radii (Angs)     Library
                     Number     Mass       (e)     Cova   Ionic  VDW   Symbol
    Na       Core       11      22.99   1.000000   0.970  0.000  2.300
    O        Core        8      16.00   0.183000   0.730  0.000  1.360
    O        Shell       8       0.00  -2.183000   0.730  0.000  1.360
    Cl       Core       17      35.45   1.485000   0.990  0.000  1.650
    Cl       Shell      17       0.00  -2.485000   0.990  0.000  1.650
    Mg       Core       12      24.31   0.415000   1.100  0.000  0.000
    Mg       Shell      12       0.00   1.585000   1.100  0.000  0.000
    Ca       Core       20      40.08  -1.135000   0.990  0.000  0.000
    Ca       Shell      20       0.00   3.135000   0.990  0.000  0.000
    Sr       Core       38      87.62  -1.251000   1.120  0.000  0.000
    Sr       Shell      38       0.00   3.251000   1.120  0.000  0.000
    Ba       Core       56     137.33  -7.203000   1.340  0.000  0.000
    Ba       Shell      56       0.00   9.203000   1.340  0.000  0.000
    Al       Core       13      26.98   3.000000   1.350  0.000  0.000

  Lattice summation method               =    Ewald          (3-D)
                                         =    Parry          (2-D)
                                         =    Saunders et al (1-D)
  Accuracy factor for lattice sums       =   12.000

  Analytic derivatives to be used

  Time limit = Infinity

  Maximum range for interatomic potentials =    100000.000000 Angstroms

  General interatomic potentials :

Atom  Types   Potential      Parameter       Value         Units   Cutoffs(Ang)
  1     2                                                            Min /  Max
O    c O    s Spring (c-s)  Spring k 2       593.71600    eV*Ang^-2 0.000  0.800
                            Spring k 4       0.0000000    eV*Ang^-4
Cl   c Cl   s Spring (c-s)  Spring k 2       29.380000    eV*Ang^-2 0.000  0.800
                            Spring k 4       0.0000000    eV*Ang^-4
Mg   c Mg   s Spring (c-s)  Spring k 2       361.60000    eV*Ang^-2 0.000  0.800
                            Spring k 4       0.0000000    eV*Ang^-4
Ca   c Ca   s Spring (c-s)  Spring k 2       110.20000    eV*Ang^-2 0.000  0.800
                            Spring k 4       0.0000000    eV*Ang^-4
Sr   c Sr   s Spring (c-s)  Spring k 2       71.700000    eV*Ang^-2 0.000  0.800
                            Spring k 4       0.0000000    eV*Ang^-4
Ba   c Ba   s Spring (c-s)  Spring k 2       495.20000    eV*Ang^-2 0.000  0.800
                            Spring k 4       0.0000000    eV*Ang^-4
Na   c Na   c Buckingham    Buckingham A     1788.1900    eV        0.000 12.000
                            Buckingham rho  0.15900000    Ang
                            Buckingham C     0.0000000    eV*Ang^6
Na   c O    s Buckingham    Buckingham A     588.38000    eV        0.000 12.000
                            Buckingham rho  0.33800000    Ang
                            Buckingham C     0.0000000    eV*Ang^6
Na   c Cl   s Buckingham    Buckingham A     1170.4100    eV        0.000 12.000
                            Buckingham rho  0.31500000    Ang
                            Buckingham C     0.0000000    eV*Ang^6
O    s O    s Buckingham    Buckingham A     22764.300    eV        0.000 12.000
                            Buckingham rho  0.14900000    Ang
                            Buckingham C     13.190000    eV*Ang^6
O    s Cl   s Buckingham    Buckingham A     8286.9100    eV        0.000 12.000
                            Buckingham rho  0.25900000    Ang
                            Buckingham C     62.200000    eV*Ang^6
Cl   s Cl   s Buckingham    Buckingham A     1227.2000    eV        0.000 12.000
                            Buckingham rho  0.32100000    Ang
                            Buckingham C     14.530000    eV*Ang^6
O    s Mg   s Buckingham    Buckingham A     1428.5000    eV        0.000 12.000
                            Buckingham rho  0.29450000    Ang
                            Buckingham C     0.0000000    eV*Ang^6
Mg   s Cl   s Buckingham    Buckingham A     4914.5400    eV        0.000 12.000
                            Buckingham rho  0.25700000    Ang
                            Buckingham C     0.0000000    eV*Ang^6
O    s Ca   s Buckingham    Buckingham A     1090.4000    eV        0.000 12.000
                            Buckingham rho  0.34370000    Ang
                            Buckingham C     0.0000000    eV*Ang^6
Cl   s Ca   s Buckingham    Buckingham A     2302.0000    eV        0.000 12.000
                            Buckingham rho  0.34020000    Ang
                            Buckingham C     0.0000000    eV*Ang^6
O    s Sr   s Buckingham    Buckingham A     959.10000    eV        0.000 12.000
                            Buckingham rho  0.37210000    Ang
                            Buckingham C     0.0000000    eV*Ang^6
Cl   s Sr   s Buckingham    Buckingham A     2191.0900    eV        0.000 12.000
                            Buckingham rho  0.34570000    Ang
                            Buckingham C     0.0000000    eV*Ang^6
O    s Ba   s Buckingham    Buckingham A     905.70000    eV        0.000 12.000
                            Buckingham rho  0.39760000    Ang
                            Buckingham C     0.0000000    eV*Ang^6
Cl   s Ba   s Buckingham    Buckingham A     2704.5500    eV        0.000 12.000
                            Buckingham rho  0.35280000    Ang
                            Buckingham C     0.0000000    eV*Ang^6
Al   c O    s Buckingham    Buckingham A     1725.0000    eV        0.000 12.000
                            Buckingham rho  0.28970000    Ang
                            Buckingham C     0.0000000    eV*Ang^6
Al   c Cl   s Buckingham    Buckingham A     1736.1200    eV        0.000 12.000
                            Buckingham rho  0.29170000    Ang
                            Buckingham C     0.0000000    eV*Ang^6

*  Output for configuration   1                                                *

  Components of energy :

  Interatomic potentials     =           4.94315381 eV
  Monopole - monopole (real) =         -10.03624526 eV
  Monopole - monopole (recip)=         -29.53581274 eV
  Monopole - monopole (total)=         -39.57205800 eV
  Total lattice energy       =         -34.62890419 eV
  Total lattice energy       =           -3341.1599 kJ/(mole unit cells)

  Number of variables =        1

  Maximum number of calculations  =          1000
  Maximum Hessian update interval =            10
  Maximum step size               =   1.000000000
  Maximum parameter tolerance     =   0.000010000
  Maximum function  tolerance     =   0.000010000
  Maximum gradient  tolerance     =   0.001000000
  Maximum gradient  component     =   0.010000000

  Symmetry constrained optimisation

  Symmetry used for second derivatives

  Cell parameters to be optimised using strains

  Newton-Raphson optimiser to be used

  BFGS hessian update to be used

  Lower half triangular hessian to be used

  Start of bulk optimisation :

  ** Hessian calculated **

  **** Optimisation achieved ****

  Final energy =     -34.67767136 eV
  Final Gnorm  =       0.00000010

  Components of energy :

  Interatomic potentials     =           5.77546103 eV
  Monopole - monopole (real) =         -10.25970290 eV
  Monopole - monopole (recip)=         -30.19342950 eV
  Monopole - monopole (total)=         -40.45313239 eV
  Total lattice energy       =         -34.67767136 eV
  Total lattice energy       =           -3345.8652 kJ/(mole unit cells)

  Final asymmetric unit coordinates :

   No.  Atomic        x           y           z         Radius
        Label       (Frac)      (Frac)      (Frac)       (Angs)
     1  Cl    c     0.000000    0.000000    0.000000    0.000000
     2  O     c     0.500000    0.500000    0.500000    0.000000
     3  Na    c     0.500000    0.500000    0.000000    0.000000
     4  Cl    s     0.000000    0.000000    0.000000    0.000000
     5  O     s     0.500000    0.500000    0.500000    0.000000

  Final Cartesian lattice vectors (Angstroms) :

        4.405902    0.000000    0.000000
        0.000000    4.405902    0.000000
        0.000000    0.000000    4.405902

  Final cell parameters and derivatives :

       a            4.405902 Angstrom     dE/de1(xx)     0.000000 eV/strain
       b            4.405902 Angstrom     dE/de2(yy)     0.000000 eV/strain
       c            4.405902 Angstrom     dE/de3(zz)     0.000000 eV/strain
       alpha       90.000000 Degrees      dE/de4(yz)     0.000000 eV/strain
       beta        90.000000 Degrees      dE/de5(xz)     0.000000 eV/strain
       gamma       90.000000 Degrees      dE/de6(xy)     0.000000 eV/strain

  Primitive cell volume =            85.527266 Angs**3

  Density of cell =      2.338030 g/cm**3

  Non-primitive cell volume =            85.527266 Angs**3

  Final internal derivatives :

   No.  Atomic          a             b             c           Radius
        Label          (eV)          (eV)          (eV)        (eV/Angs)
[...]
    725 z          4.405902      4.402149    -0.003753    Cartesian   -0.09
    726 x          4.405902      4.403731    -0.002171    Cartesian   -0.05
    726 y         -8.811805     -8.791439     0.020365    Cartesian   -0.23
    726 z         -8.811805     -8.806081     0.005724    Cartesian   -0.06
    727 x          8.811805      8.813023     0.001218    Cartesian    0.01
    727 y         -8.811805     -8.803857     0.007948    Cartesian   -0.09
    727 z          8.811805      8.806512    -0.005292    Cartesian   -0.06
    728 x          2.202951      2.202951     0.000000    Cartesian    0.00
    728 y          2.202951      2.196672    -0.006279    Cartesian   -0.29
    728 z         15.420658     15.413255    -0.007403    Cartesian   -0.05
    729 x          2.202951      2.202951     0.000000    Cartesian    0.00
    729 y         15.420658     15.435367     0.014709    Cartesian    0.10
    729 z          2.202951      2.211073     0.008122    Cartesian    0.37
    730 x          2.202951      2.202951     0.000000    Cartesian    0.00
    730 y         -6.608853     -6.605718     0.003135    Cartesian   -0.05
    730 z        -11.014756    -11.008185     0.006571    Cartesian   -0.06
    731 x          2.202951      2.202951     0.000000    Cartesian    0.00
    731 y        -11.014756    -11.008714     0.006042    Cartesian   -0.05
    731 z         -6.608853     -6.606079     0.002774    Cartesian   -0.04
    732 x         11.014756     11.016909     0.002153    Cartesian    0.02
    732 y          6.608853      6.609680     0.000826    Cartesian    0.01
    732 z         11.014756     11.017137     0.002381    Cartesian    0.02
    733 x         11.014756     11.018416     0.003660    Cartesian    0.03
    733 y         11.014756     11.018196     0.003440    Cartesian    0.03
    733 z          6.608853      6.611205     0.002352    Cartesian    0.04
    734 x         15.420658     15.421060     0.000402    Cartesian    0.00
    734 y          2.202951      2.204660     0.001709    Cartesian    0.08
    734 z          6.608853      6.608505    -0.000348    Cartesian   -0.01
    735 x         15.420658     15.421701     0.001043    Cartesian    0.01
    735 y          6.608853      6.613117     0.004264    Cartesian    0.06
    735 z          2.202951      2.203395     0.000444    Cartesian    0.02
    736 x          4.405902      4.401890    -0.004012    Cartesian   -0.09
    736 y          0.000000      0.003348     0.003348    Cartesian    0.00
    736 z        -13.217707    -13.201017     0.016689    Cartesian   -0.13
    737 x          4.405902      4.407562     0.001660    Cartesian    0.04
    737 y        -13.217707    -13.206245     0.011462    Cartesian   -0.09
    737 z          0.000000     -0.006951    -0.006951    Cartesian    0.00
    738 x          4.405902      4.402604    -0.003298    Cartesian   -0.07
    738 y          8.811805      8.810796    -0.001009    Cartesian   -0.01
    738 z         13.217707     13.206980    -0.010727    Cartesian   -0.08
    739 x          4.405902      4.404860    -0.001042    Cartesian   -0.02
    739 y         13.217707     13.215600    -0.002107    Cartesian   -0.02
    739 z          8.811805      8.808209    -0.003596    Cartesian   -0.04
    740 x         13.217707     13.212349    -0.005358    Cartesian   -0.04
    740 y          8.811805      8.808370    -0.003434    Cartesian   -0.04
    740 z         -4.405902     -4.407815    -0.001913    Cartesian    0.04
    741 x         13.217707     13.211731    -0.005976    Cartesian   -0.05
    741 y         -4.405902     -4.401209     0.004693    Cartesian   -0.11
    741 z          8.811805      8.801857    -0.009947    Cartesian   -0.11
    742 x          2.202951      2.202951     0.000000    Cartesian    0.00
    742 y         15.420658     15.434713     0.014055    Cartesian    0.09
    742 z         -2.202951     -2.210934    -0.007983    Cartesian    0.36
    743 x          2.202951      2.202951     0.000000    Cartesian    0.00
    743 y         -2.202951     -2.194753     0.008198    Cartesian   -0.37
    743 z         15.420658     15.414792    -0.005866    Cartesian   -0.04
    744 x          6.608853      6.608868     0.000014    Cartesian    0.00
    744 y         11.014756     11.013932    -0.000824    Cartesian   -0.01
    744 z         11.014756     11.015178     0.000423    Cartesian    0.00
    745 x         15.420658     15.424082     0.003424    Cartesian    0.02
    745 y          6.608853      6.609589     0.000736    Cartesian    0.01
    745 z         -2.202951     -2.204239    -0.001288    Cartesian    0.06
    746 x         15.420658     15.419028    -0.001630    Cartesian   -0.01
    746 y         -2.202951     -2.203817    -0.000866    Cartesian    0.04
    746 z          6.608853      6.608575    -0.000278    Cartesian   -0.00
    747 x          4.405902      4.404810    -0.001093    Cartesian   -0.02
    747 y        -13.217707    -13.208023     0.009684    Cartesian   -0.07
    747 z          4.405902      4.400724    -0.005178    Cartesian   -0.12
    748 x          4.405902      4.402432    -0.003471    Cartesian   -0.08
    748 y          4.405902      4.400721    -0.005181    Cartesian   -0.12
    748 z        -13.217707    -13.203756     0.013951    Cartesian   -0.11
    749 x          8.811805      8.808965    -0.002840    Cartesian   -0.03
    749 y         -4.405902     -4.400853     0.005049    Cartesian   -0.11
    749 z         13.217707     13.207329    -0.010378    Cartesian   -0.08
    750 x         13.217707     13.204765    -0.012942    Cartesian   -0.10
    750 y          0.000000      0.003055     0.003055    Cartesian    0.00
    750 z         -8.811805     -8.808075     0.003729    Cartesian   -0.04
    751 x          8.811805      8.812165     0.000361    Cartesian    0.00
    751 y         13.217707     13.213785    -0.003922    Cartesian   -0.03
    751 z         -4.405902     -4.407417    -0.001514    Cartesian    0.03
    752 x         13.217707     13.207226    -0.010481    Cartesian   -0.08
    752 y         -8.811805     -8.798519     0.013286    Cartesian   -0.15
    752 z          0.000000     -0.005844    -0.005844    Cartesian    0.00
    753 x          6.608853      6.608387    -0.000467    Cartesian   -0.01
    753 y          2.202951      2.204608     0.001657    Cartesian    0.08
    753 z         15.420658     15.418161    -0.002497    Cartesian   -0.02
    754 x          6.608853      6.611513     0.002660    Cartesian    0.04
    754 y         15.420658     15.428453     0.007794    Cartesian    0.05
    754 z          2.202951      2.203308     0.000357    Cartesian    0.02
    755 x          6.608853      6.607120    -0.001733    Cartesian   -0.03
    755 y         -6.608853     -6.604413     0.004440    Cartesian   -0.07
    755 z        -11.014756    -11.011389     0.003367    Cartesian   -0.03
    756 x          6.608853      6.608757    -0.000096    Cartesian   -0.00
    756 y        -11.014756    -11.010314     0.004442    Cartesian   -0.04
    756 z         -6.608853     -6.607858     0.000996    Cartesian   -0.02
    757 x         11.014756     11.012468    -0.002288    Cartesian   -0.02
    757 y          2.202951      2.202918    -0.000033    Cartesian   -0.00
    757 z        -11.014756    -11.011758     0.002998    Cartesian   -0.03
    758 x         11.014756     11.011179    -0.003577    Cartesian   -0.03
    758 y        -11.014756    -11.010664     0.004092    Cartesian   -0.04
    758 z          2.202951      2.201506    -0.001445    Cartesian   -0.07
    759 x         13.217707     13.206369    -0.011338    Cartesian   -0.09
    759 y          4.405902      4.400682    -0.005220    Cartesian   -0.12
    759 z         -8.811805     -8.807316     0.004489    Cartesian   -0.05
    760 x         13.217707     13.208813    -0.008894    Cartesian   -0.07
    760 y         -8.811805     -8.797629     0.014176    Cartesian   -0.16
    760 z          4.405902      4.398209    -0.007693    Cartesian   -0.17
    761 x          6.608853      6.609901     0.001047    Cartesian    0.02
    761 y         15.420658     15.426814     0.006156    Cartesian    0.04
    761 z         -2.202951     -2.203645    -0.000694    Cartesian    0.03
    762 x          2.202951      2.202951     0.000000    Cartesian    0.00
    762 y          6.608853      6.611537     0.002684    Cartesian    0.04
    762 z         15.420658     15.413086    -0.007572    Cartesian   -0.05
    763 x          2.202951      2.202951     0.000000    Cartesian    0.00
    763 y         15.420658     15.425910     0.005252    Cartesian    0.03
    763 z          6.608853      6.605390    -0.003463    Cartesian   -0.05
    764 x          6.608853      6.607357    -0.001497    Cartesian   -0.02
    764 y         -2.202951     -2.204382    -0.001430    Cartesian    0.06
    764 z         15.420658     15.417009    -0.003649    Cartesian   -0.02
    765 x         11.014756     11.013270    -0.001486    Cartesian   -0.01
    765 y         11.014756     11.013732    -0.001024    Cartesian   -0.01
    765 z         -6.608853     -6.608455     0.000398    Cartesian   -0.01
    766 x         11.014756     11.011835    -0.002921    Cartesian   -0.03
    766 y         -2.202951     -2.201383     0.001568    Cartesian   -0.07
    766 z        -11.014756    -11.011808     0.002948    Cartesian   -0.03
    767 x         11.014756     11.014344    -0.000412    Cartesian   -0.00
    767 y        -11.014756    -11.010258     0.004498    Cartesian   -0.04
    767 z         -2.202951     -2.203859    -0.000908    Cartesian    0.04
    768 x         15.420658     15.420082    -0.000576    Cartesian   -0.00
    768 y          2.202951      2.202889    -0.000063    Cartesian   -0.00
    768 z         -6.608853     -6.607300     0.001554    Cartesian   -0.02
    769 x         11.014756     11.012762    -0.001993    Cartesian   -0.02
    769 y         -6.608853     -6.604838     0.004016    Cartesian   -0.06
    769 z         11.014756     11.011736    -0.003020    Cartesian   -0.03
    770 x         15.420658     15.418966    -0.001692    Cartesian   -0.01
    770 y          6.608853      6.607073    -0.001781    Cartesian   -0.03
    770 z          6.608853      6.607225    -0.001628    Cartesian   -0.02
    771 x         15.420658     15.414576    -0.006082    Cartesian   -0.04
    771 y         -6.608853     -6.608184     0.000669    Cartesian   -0.01
    771 z          2.202951      2.202298    -0.000653    Cartesian   -0.03
    772 x          4.405902      4.403123    -0.002779    Cartesian   -0.06
    772 y         -4.405902     -4.396813     0.009089    Cartesian   -0.21
    772 z        -13.217707    -13.200365     0.017342    Cartesian   -0.13
    773 x          4.405902      4.401939    -0.003963    Cartesian   -0.09
    773 y        -13.217707    -13.201749     0.015958    Cartesian   -0.12
    773 z         -4.405902     -4.406342    -0.000440    Cartesian    0.01
    774 x          8.811805      8.803525    -0.008279    Cartesian   -0.09
    774 y         -8.811805     -8.795361     0.016443    Cartesian   -0.19
    774 z         -8.811805     -8.806514     0.005291    Cartesian   -0.06
    775 x         13.217707     13.209962    -0.007745    Cartesian   -0.06
    775 y          8.811805      8.808499    -0.003306    Cartesian   -0.04
    775 z          8.811805      8.805278    -0.006527    Cartesian   -0.07
    776 x         17.623609     17.608075    -0.015534    Cartesian   -0.09
    776 y          0.000000      0.001072     0.001072    Cartesian    0.00
    776 z          0.000000     -0.002493    -0.002493    Cartesian    0.00
    777 x         15.420658     15.416377    -0.004281    Cartesian   -0.03
    777 y         -2.202951     -2.200795     0.002156    Cartesian   -0.10
    777 z         -6.608853     -6.607070     0.001783    Cartesian   -0.03
    778 x          2.202951      2.202951     0.000000    Cartesian    0.00
    778 y         11.014756     11.017130     0.002374    Cartesian    0.02
    778 z        -11.014756    -11.014033     0.000723    Cartesian   -0.01
    779 x          2.202951      2.202951     0.000000    Cartesian    0.00
    779 y        -11.014756    -11.012958     0.001797    Cartesian   -0.02
    779 z         11.014756     11.010197    -0.004559    Cartesian   -0.04
    780 x         15.420658     15.416999    -0.003659    Cartesian   -0.02
    780 y         -6.608853     -6.604480     0.004374    Cartesian   -0.07
    780 z         -2.202951     -2.202123     0.000828    Cartesian   -0.04
    781 x          4.405902      4.403636    -0.002266    Cartesian   -0.05
    781 y         13.217707     13.207483    -0.010224    Cartesian   -0.08
    781 z         -8.811805     -8.812241    -0.000436    Cartesian    0.00
    782 x          4.405902      4.403883    -0.002020    Cartesian   -0.05
    782 y         -8.811805     -8.800596     0.011208    Cartesian   -0.13
    782 z         13.217707     13.206702    -0.011005    Cartesian   -0.08
    783 x          8.811805      8.803541    -0.008264    Cartesian   -0.09
    783 y          0.000000      0.001113     0.001113    Cartesian    0.00
    783 z        -13.217707    -13.200641     0.017066    Cartesian   -0.13
    784 x          8.811805      8.806845    -0.004959    Cartesian   -0.06
    784 y          8.811805      8.808699    -0.003106    Cartesian   -0.04
    784 z         13.217707     13.205623    -0.012084    Cartesian   -0.09
    785 x          8.811805      8.808858    -0.002947    Cartesian   -0.03
    785 y         13.217707     13.209800    -0.007907    Cartesian   -0.06
    785 z          8.811805      8.807803    -0.004001    Cartesian   -0.05
    786 x          8.811805      8.806889    -0.004915    Cartesian   -0.06
    786 y        -13.217707    -13.202837     0.014870    Cartesian   -0.11
    786 z          0.000000     -0.000494    -0.000494    Cartesian    0.00
    787 x         13.217707     13.202612    -0.015095    Cartesian   -0.11
    787 y         -4.405902     -4.399334     0.006568    Cartesian   -0.15
    787 z         -8.811805     -8.805119     0.006685    Cartesian   -0.08
    788 x         17.623609     17.608534    -0.015075    Cartesian   -0.09
    788 y          0.000000      0.001631     0.001631    Cartesian    0.00
    788 z          4.405902      4.400407    -0.005495    Cartesian   -0.12
    789 x         17.623609     17.609595    -0.014014    Cartesian   -0.08
    789 y          4.405902      4.403715    -0.002187    Cartesian   -0.05
    789 z          0.000000     -0.002148    -0.002148    Cartesian    0.00
    790 x         13.217707     13.204191    -0.013516    Cartesian   -0.10
    790 y         -8.811805     -8.797897     0.013908    Cartesian   -0.16
    790 z         -4.405902     -4.405419     0.000484    Cartesian   -0.01
    791 x          6.608853      6.607275    -0.001579    Cartesian   -0.02
    791 y          6.608853      6.606472    -0.002382    Cartesian   -0.04
    791 z         15.420658     15.417444    -0.003214    Cartesian   -0.02
    792 x          6.608853      6.608209    -0.000645    Cartesian   -0.01
    792 y         15.420658     15.419576    -0.001082    Cartesian   -0.01
    792 z          6.608853      6.609145     0.000292    Cartesian    0.00
    793 x         11.014756     11.011873    -0.002883    Cartesian   -0.03
    793 y          6.608853      6.606491    -0.002363    Cartesian   -0.04
    793 z        -11.014756    -11.011133     0.003623    Cartesian   -0.03
    794 x         11.014756     11.013098    -0.001658    Cartesian   -0.02
    794 y        -11.014756    -11.009384     0.005372    Cartesian   -0.05
    794 z          6.608853      6.605750    -0.003104    Cartesian   -0.05

  Time to end of optimisation  =      131.8210 seconds

  Timing analysis for GULP :

  Task / Subroutine                                          Time (Seconds)
  Calculation of reciprocal space energy and derivatives          0.0005
  Calculation of reciprocal space energy using symmetry           0.0004
  Calculation of real space energy and derivatives                0.0026
  Calculation of real space energy using symmetry                 0.0045
  Calculation for region 1 energy and derivatives (2-b)          74.5291
  Calculation for region 2a energy                               39.3028
  Calculation for region 2b energy                                0.0056
  Calculation and manipulation of Hessian matrix                  0.2963
  Calculation of matrix inversion                                17.0071
  Symmetry generation of equivalent positions                     0.0023

  Dump file written as Na3OCl.grs

  Job Finished at 23:14.10 25th August     2021