  Job Started  at 15:20.26  3rd January    2021

  Number of CPUs =     1

  Total number of configurations input =      1

*  Input for Configuration =   1                                               *

  Formula = ClONa3

  Number of irreducible atoms/shells =       5

  Total number atoms/shells =       7

  Dimensionality = 3               :  Bulk

  Symmetry :

  Crystal family                   :  Cubic
  Crystal class  (Groth - 1921)    :  Cubic Hexakisoctahedral

  Space group (centrosymmetric)    :  P M 3 M

  Patterson group                  :  P m -3 m

  Cartesian lattice vectors (Angstroms) :

        4.504000    0.000000    0.000000
        0.000000    4.504000    0.000000
        0.000000    0.000000    4.504000

  Cell parameters (Angstroms/Degrees):

  a =       4.5040    alpha =  90.0000
  b =       4.5040    beta  =  90.0000
  c =       4.5040    gamma =  90.0000

  Initial cell volume =          91.368216 Angs**3

  Temperature of configuration =   0.00     K

  Pressure of configuration =         0.000 GPa

  Fractional coordinates of asymmetric unit :

   No.  Atomic       x           y          z         Charge      Occupancy
        Label      (Frac)      (Frac)     (Frac)        (e)         (Frac)
      1 Cl    c    0.000000    0.000000    0.000000     1.48500    1.000000
      2 O     c    0.500000    0.500000    0.500000     0.18300    1.000000
      3 Na    c    0.500000    0.500000    0.000000     1.00000    1.000000
      4 Cl    s    0.000000    0.000000    0.000000    -2.48500    1.000000
      5 O     s    0.500000    0.500000    0.500000    -2.18300    1.000000

  Constraints :

  Constraint no.      Unconstrained     Constrained    Coefficient    Offset
                         Variable         Variable
           1              Strain 1        Strain 2       1.00000      0.0000
           2              Strain 1        Strain 3       1.00000      0.0000

*  General input information                                                   *

  Species output for all configurations :

  Species    Type    Atomic    Atomic    Charge       Radii (Angs)     Library
                     Number     Mass       (e)     Cova   Ionic  VDW   Symbol
    Na       Core       11      22.99   1.000000   0.970  0.000  2.300
    O        Core        8      16.00   0.183000   0.730  0.000  1.360
    O        Shell       8       0.00  -2.183000   0.730  0.000  1.360
    Cl       Core       17      35.45   1.485000   0.990  0.000  1.650
    Cl       Shell      17       0.00  -2.485000   0.990  0.000  1.650
    Mg       Core       12      24.31   0.415000   1.100  0.000  0.000
    Mg       Shell      12       0.00   1.585000   1.100  0.000  0.000
    Ca       Core       20      40.08  -1.135000   0.990  0.000  0.000
    Ca       Shell      20       0.00   3.135000   0.990  0.000  0.000
    Sr       Core       38      87.62  -1.251000   1.120  0.000  0.000
    Sr       Shell      38       0.00   3.251000   1.120  0.000  0.000
    Ba       Core       56     137.33  -7.203000   1.340  0.000  0.000
    Ba       Shell      56       0.00   9.203000   1.340  0.000  0.000

  Lattice summation method               =    Ewald          (3-D)
                                         =    Parry          (2-D)
                                         =    Saunders et al (1-D)
  Accuracy factor for lattice sums       =   12.000

  Analytic derivatives to be used

  Time limit = Infinity

  Maximum range for interatomic potentials =    100000.000000 Angstroms

  General interatomic potentials :

Atom  Types   Potential      Parameter       Value         Units   Cutoffs(Ang)
  1     2                                                            Min /  Max
O    c O    s Spring (c-s)  Spring k 2       593.71600    eV*Ang^-2 0.000  0.800
                            Spring k 4       0.0000000    eV*Ang^-4
Cl   c Cl   s Spring (c-s)  Spring k 2       29.380000    eV*Ang^-2 0.000  0.800
                            Spring k 4       0.0000000    eV*Ang^-4
Mg   c Mg   s Spring (c-s)  Spring k 2       361.60000    eV*Ang^-2 0.000  0.800
                            Spring k 4       0.0000000    eV*Ang^-4
Ca   c Ca   s Spring (c-s)  Spring k 2       110.20000    eV*Ang^-2 0.000  0.800
                            Spring k 4       0.0000000    eV*Ang^-4
Sr   c Sr   s Spring (c-s)  Spring k 2       71.700000    eV*Ang^-2 0.000  0.800
                            Spring k 4       0.0000000    eV*Ang^-4
Ba   c Ba   s Spring (c-s)  Spring k 2       495.20000    eV*Ang^-2 0.000  0.800
                            Spring k 4       0.0000000    eV*Ang^-4
Na   c Na   c Buckingham    Buckingham A     1788.1900    eV        0.000 12.000
                            Buckingham rho  0.15900000    Ang
                            Buckingham C     0.0000000    eV*Ang^6
Na   c O    s Buckingham    Buckingham A     588.38000    eV        0.000 12.000
                            Buckingham rho  0.33800000    Ang
                            Buckingham C     0.0000000    eV*Ang^6
Na   c Cl   s Buckingham    Buckingham A     1170.4100    eV        0.000 12.000
                            Buckingham rho  0.31500000    Ang
                            Buckingham C     0.0000000    eV*Ang^6
O    s O    s Buckingham    Buckingham A     22764.300    eV        0.000 12.000
                            Buckingham rho  0.14900000    Ang
                            Buckingham C     13.190000    eV*Ang^6
O    s Cl   s Buckingham    Buckingham A     8286.9100    eV        0.000 12.000
                            Buckingham rho  0.25900000    Ang
                            Buckingham C     62.200000    eV*Ang^6
Cl   s Cl   s Buckingham    Buckingham A     1227.2000    eV        0.000 12.000
                            Buckingham rho  0.32100000    Ang
                            Buckingham C     14.530000    eV*Ang^6
O    s Mg   s Buckingham    Buckingham A     1428.5000    eV        0.000 12.000
                            Buckingham rho  0.29450000    Ang
                            Buckingham C     0.0000000    eV*Ang^6
Mg   s Cl   s Buckingham    Buckingham A     4914.5400    eV        0.000 12.000
                            Buckingham rho  0.25700000    Ang
                            Buckingham C     0.0000000    eV*Ang^6
O    s Ca   s Buckingham    Buckingham A     1090.4000    eV        0.000 12.000
                            Buckingham rho  0.34370000    Ang
                            Buckingham C     0.0000000    eV*Ang^6
Cl   s Ca   s Buckingham    Buckingham A     2302.0000    eV        0.000 12.000
                            Buckingham rho  0.34020000    Ang
                            Buckingham C     0.0000000    eV*Ang^6
O    s Sr   s Buckingham    Buckingham A     959.10000    eV        0.000 12.000
                            Buckingham rho  0.37210000    Ang
                            Buckingham C     0.0000000    eV*Ang^6
Cl   s Sr   s Buckingham    Buckingham A     2191.0900    eV        0.000 12.000
                            Buckingham rho  0.34570000    Ang
                            Buckingham C     0.0000000    eV*Ang^6
O    s Ba   s Buckingham    Buckingham A     905.70000    eV        0.000 12.000
                            Buckingham rho  0.39760000    Ang
                            Buckingham C     0.0000000    eV*Ang^6
Cl   s Ba   s Buckingham    Buckingham A     2704.5500    eV        0.000 12.000
                            Buckingham rho  0.35280000    Ang
                            Buckingham C     0.0000000    eV*Ang^6

*  Output for configuration   1                                                *

  Components of energy :

  Interatomic potentials     =           4.94315381 eV
  Monopole - monopole (real) =         -10.03624526 eV
  Monopole - monopole (recip)=         -29.53581274 eV
  Monopole - monopole (total)=         -39.57205800 eV
  Total lattice energy       =         -34.62890419 eV
  Total lattice energy       =           -3341.1599 kJ/(mole unit cells)

  Number of variables =        1

  Maximum number of calculations  =          1000
  Maximum Hessian update interval =            10
  Maximum step size               =   1.000000000
  Maximum parameter tolerance     =   0.000010000
  Maximum function  tolerance     =   0.000010000
  Maximum gradient  tolerance     =   0.001000000
  Maximum gradient  component     =   0.010000000

  Symmetry constrained optimisation

  Symmetry used for second derivatives

  Cell parameters to be optimised using strains

  Newton-Raphson optimiser to be used

  BFGS hessian update to be used

  Lower half triangular hessian to be used

  Start of bulk optimisation :

  ** Hessian calculated **

  **** Optimisation achieved ****

  Final energy =     -34.67767136 eV
  Final Gnorm  =       0.00000010

  Components of energy :

  Interatomic potentials     =           5.77546103 eV
  Monopole - monopole (real) =         -10.25970290 eV
  Monopole - monopole (recip)=         -30.19342950 eV
  Monopole - monopole (total)=         -40.45313239 eV
  Total lattice energy       =         -34.67767136 eV
  Total lattice energy       =           -3345.8652 kJ/(mole unit cells)

  Final asymmetric unit coordinates :

   No.  Atomic        x           y           z         Radius
        Label       (Frac)      (Frac)      (Frac)       (Angs)
     1  Cl    c     0.000000    0.000000    0.000000    0.000000
     2  O     c     0.500000    0.500000    0.500000    0.000000
     3  Na    c     0.500000    0.500000    0.000000    0.000000
     4  Cl    s     0.000000    0.000000    0.000000    0.000000
     5  O     s     0.500000    0.500000    0.500000    0.000000

  Final Cartesian lattice vectors (Angstroms) :

        4.405902    0.000000    0.000000
        0.000000    4.405902    0.000000
        0.000000    0.000000    4.405902

  Final cell parameters and derivatives :

       a            4.405902 Angstrom     dE/de1(xx)     0.000000 eV/strain
       b            4.405902 Angstrom     dE/de2(yy)     0.000000 eV/strain
       c            4.405902 Angstrom     dE/de3(zz)     0.000000 eV/strain
       alpha       90.000000 Degrees      dE/de4(yz)     0.000000 eV/strain
       beta        90.000000 Degrees      dE/de5(xz)     0.000000 eV/strain
       gamma       90.000000 Degrees      dE/de6(xy)     0.000000 eV/strain

  Primitive cell volume =            85.527266 Angs**3

  Density of cell =      2.338030 g/cm**3

  Non-primitive cell volume =            85.527266 Angs**3

  Final internal derivatives :

   No.  Atomic          a             b             c           Radius
        Label          (eV)          (eV)          (eV)        (eV/Angs)
      1 Cl    c       0.000000      0.000000      0.000000      0.000000
      2 O     c       0.000000      0.000000      0.000000      0.000000
      3 Na    c       0.000000      0.000000      0.000000      0.000000
      4 Cl    s       0.000000      0.000000      0.000000      0.000000
      5 O     s       0.000000      0.000000      0.000000      0.000000
  Maximum abs         0.000000      0.000000      0.000000      0.000000

  Comparison of initial and final structures :

[...]
    726 y         13.217707     13.219839     0.002132    Cartesian    0.02
    726 z          4.405902      4.400526    -0.005376    Cartesian   -0.12
    727 x          4.405902      4.407264     0.001362    Cartesian    0.03
    727 y         -8.811805     -8.809238     0.002566    Cartesian   -0.03
    727 z         -8.811805     -8.819915    -0.008111    Cartesian    0.09
    728 x          8.811805      8.818747     0.006943    Cartesian    0.08
    728 y         -8.811805     -8.812926    -0.001122    Cartesian    0.01
    728 z          8.811805      8.814913     0.003108    Cartesian    0.04
    729 x          2.202951      2.202951     0.000000    Cartesian    0.00
    729 y          2.202951      2.196088    -0.006863    Cartesian   -0.31
    729 z         15.420658     15.418759    -0.001899    Cartesian   -0.01
    730 x          2.202951      2.202951     0.000000    Cartesian    0.00
    730 y         15.420658     15.423534     0.002876    Cartesian    0.02
    730 z          2.202951      2.209256     0.006305    Cartesian    0.29
    731 x          2.202951      2.202951     0.000000    Cartesian    0.00
    731 y         -6.608853     -6.617024    -0.008171    Cartesian    0.12
    731 z        -11.014756    -11.018363    -0.003607    Cartesian    0.03
    732 x          2.202951      2.202951     0.000000    Cartesian    0.00
    732 y        -11.014756    -11.016465    -0.001709    Cartesian    0.02
    732 z         -6.608853     -6.606149     0.002704    Cartesian   -0.04
    733 x         11.014756     11.016139     0.001383    Cartesian    0.01
    733 y          6.608853      6.609535     0.000682    Cartesian    0.01
    733 z         11.014756     11.016182     0.001426    Cartesian    0.01
    734 x         11.014756     11.015817     0.001062    Cartesian    0.01
    734 y         11.014756     11.015376     0.000620    Cartesian    0.01
    734 z          6.608853      6.608782    -0.000072    Cartesian   -0.00
    735 x         15.420658     15.421829     0.001171    Cartesian    0.01
    735 y          2.202951      2.203833     0.000882    Cartesian    0.04
    735 z          6.608853      6.603123    -0.005730    Cartesian   -0.09
    736 x         15.420658     15.419531    -0.001127    Cartesian   -0.01
    736 y          6.608853      6.611782     0.002928    Cartesian    0.04
    736 z          2.202951      2.201491    -0.001460    Cartesian   -0.07
    737 x          4.405902      4.407014     0.001112    Cartesian    0.03
    737 y          0.000000      0.001325     0.001325    Cartesian    0.00
    737 z        -13.217707    -13.222171    -0.004464    Cartesian    0.03
    738 x          4.405902      4.409075     0.003173    Cartesian    0.07
    738 y        -13.217707    -13.220007    -0.002301    Cartesian    0.02
    738 z          0.000000     -0.005218    -0.005218    Cartesian    0.00
    739 x          4.405902      4.403663    -0.002239    Cartesian   -0.05
    739 y          8.811805      8.815638     0.003833    Cartesian    0.04
    739 z         13.217707     13.216626    -0.001081    Cartesian   -0.01
    740 x          4.405902      4.405592    -0.000310    Cartesian   -0.01
    740 y         13.217707     13.222106     0.004399    Cartesian    0.03
    740 z          8.811805      8.809101    -0.002704    Cartesian   -0.03
    741 x         13.217707     13.216162    -0.001545    Cartesian   -0.01
    741 y          8.811805      8.813454     0.001650    Cartesian    0.02
    741 z         -4.405902     -4.408370    -0.002468    Cartesian    0.06
    742 x         13.217707     13.220692     0.002985    Cartesian    0.02
    742 y         -4.405902     -4.402985     0.002917    Cartesian   -0.07
    742 z          8.811805      8.809139    -0.002666    Cartesian   -0.03
    743 x          2.202951      2.202951     0.000000    Cartesian    0.00
    743 y         15.420658     15.421914     0.001255    Cartesian    0.01
    743 z         -2.202951     -2.211050    -0.008099    Cartesian    0.37
    744 x          2.202951      2.202951     0.000000    Cartesian    0.00
    744 y         -2.202951     -2.196139     0.006813    Cartesian   -0.31
    744 z         15.420658     15.418016    -0.002642    Cartesian   -0.02
    745 x          6.608853      6.608973     0.000120    Cartesian    0.00
    745 y         11.014756     11.015135     0.000379    Cartesian    0.00
    745 z         11.014756     11.015343     0.000587    Cartesian    0.01
    746 x         15.420658     15.421714     0.001056    Cartesian    0.01
    746 y          6.608853      6.609274     0.000421    Cartesian    0.01
    746 z         -2.202951     -2.202600     0.000351    Cartesian   -0.02
    747 x         15.420658     15.419614    -0.001044    Cartesian   -0.01
    747 y         -2.202951     -2.203232    -0.000280    Cartesian    0.01
    747 z          6.608853      6.608155    -0.000699    Cartesian   -0.01
    748 x          4.405902      4.407709     0.001807    Cartesian    0.04
    748 y        -13.217707    -13.221688    -0.003981    Cartesian    0.03
    748 z          4.405902      4.405477    -0.000425    Cartesian   -0.01
    749 x          4.405902      4.406966     0.001064    Cartesian    0.02
    749 y          4.405902      4.409435     0.003533    Cartesian    0.08
    749 z        -13.217707    -13.221594    -0.003887    Cartesian    0.03
    750 x          8.811805      8.813162     0.001358    Cartesian    0.02
    750 y         -4.405902     -4.403981     0.001921    Cartesian   -0.04
    750 z         13.217707     13.219384     0.001677    Cartesian    0.01
    751 x         13.217707     13.218261     0.000554    Cartesian    0.00
    751 y          0.000000      0.004358     0.004358    Cartesian    0.00
    751 z         -8.811805     -8.816820    -0.005016    Cartesian    0.06
    752 x          8.811805      8.810318    -0.001487    Cartesian   -0.02
    752 y         13.217707     13.217951     0.000244    Cartesian    0.00
    752 z         -4.405902     -4.408563    -0.002661    Cartesian    0.06
    753 x         13.217707     13.219354     0.001647    Cartesian    0.01
    753 y         -8.811805     -8.807713     0.004091    Cartesian   -0.05
    753 z          0.000000     -0.004938    -0.004938    Cartesian    0.00
    754 x          6.608853      6.610373     0.001520    Cartesian    0.02
    754 y          2.202951      2.203719     0.000768    Cartesian    0.03
    754 z         15.420658     15.421223     0.000565    Cartesian    0.00
    755 x          6.608853      6.608272    -0.000581    Cartesian   -0.01
    755 y         15.420658     15.422433     0.001775    Cartesian    0.01
    755 z          2.202951      2.201629    -0.001323    Cartesian   -0.06
    756 x          6.608853      6.609242     0.000389    Cartesian    0.01
    756 y         -6.608853     -6.608995    -0.000141    Cartesian    0.00
    756 z        -11.014756    -11.016498    -0.001743    Cartesian    0.02
    757 x          6.608853      6.609710     0.000857    Cartesian    0.01
    757 y        -11.014756    -11.015452    -0.000697    Cartesian    0.01
    757 z         -6.608853     -6.610298    -0.001444    Cartesian    0.02
    758 x         11.014756     11.019977     0.005221    Cartesian    0.05
    758 y          2.202951      2.202793    -0.000158    Cartesian   -0.01
    758 z        -11.014756    -11.016543    -0.001787    Cartesian    0.02
    759 x         11.014756     11.012414    -0.002341    Cartesian   -0.02
    759 y        -11.014756    -11.014283     0.000472    Cartesian   -0.00
    759 z          2.202951      2.203143     0.000192    Cartesian    0.01
    760 x         13.217707     13.217066    -0.000641    Cartesian   -0.00
    760 y          4.405902      4.407410     0.001508    Cartesian    0.03
    760 z         -8.811805     -8.816328    -0.004524    Cartesian    0.05
    761 x         13.217707     13.220308     0.002602    Cartesian    0.02
    761 y         -8.811805     -8.807760     0.004044    Cartesian   -0.05
    761 z          4.405902      4.404240    -0.001662    Cartesian   -0.04
    762 x          6.608853      6.609090     0.000236    Cartesian    0.00
    762 y         15.420658     15.422408     0.001750    Cartesian    0.01
    762 z         -2.202951     -2.202211     0.000740    Cartesian   -0.03
    763 x          2.202951      2.202951     0.000000    Cartesian    0.00
    763 y          6.608853      6.613275     0.004421    Cartesian    0.07
    763 z         15.420658     15.416088    -0.004570    Cartesian   -0.03
    764 x          2.202951      2.202951     0.000000    Cartesian    0.00
    764 y         15.420658     15.424069     0.003411    Cartesian    0.02
    764 z          6.608853      6.604091    -0.004763    Cartesian   -0.07
    765 x          6.608853      6.608544    -0.000309    Cartesian   -0.00
    765 y         -2.202951     -2.203963    -0.001012    Cartesian    0.05
    765 z         15.420658     15.420017    -0.000641    Cartesian   -0.00
    766 x         11.014756     11.014655    -0.000101    Cartesian   -0.00
    766 y         11.014756     11.015502     0.000746    Cartesian    0.01
    766 z         -6.608853     -6.609675    -0.000822    Cartesian    0.01
    767 x         11.014756     11.015141     0.000385    Cartesian    0.00
    767 y         -2.202951     -2.202015     0.000936    Cartesian   -0.04
    767 z        -11.014756    -11.015991    -0.001235    Cartesian    0.01
    768 x         11.014756     11.015665     0.000909    Cartesian    0.01
    768 y        -11.014756    -11.014704     0.000051    Cartesian   -0.00
    768 z         -2.202951     -2.204464    -0.001513    Cartesian    0.07
    769 x         15.420658     15.424566     0.003908    Cartesian    0.03
    769 y          2.202951      2.203045     0.000094    Cartesian    0.00
    769 z         -6.608853     -6.606085     0.002768    Cartesian   -0.04
    770 x         11.014756     11.016135     0.001379    Cartesian    0.01
    770 y         -6.608853     -6.608567     0.000286    Cartesian   -0.00
    770 z         11.014756     11.014918     0.000162    Cartesian    0.00
    771 x         15.420658     15.421176     0.000518    Cartesian    0.00
    771 y          6.608853      6.608665    -0.000188    Cartesian   -0.00
    771 z          6.608853      6.608530    -0.000324    Cartesian   -0.00
    772 x         15.420658     15.416469    -0.004189    Cartesian   -0.03
    772 y         -6.608853     -6.610548    -0.001695    Cartesian    0.03
    772 z          2.202951      2.203032     0.000080    Cartesian    0.00
    773 x          4.405902      4.405911     0.000009    Cartesian    0.00
    773 y         -4.405902     -4.405228     0.000674    Cartesian   -0.02
    773 z        -13.217707    -13.221870    -0.004163    Cartesian    0.03
    774 x          4.405902      4.404498    -0.001404    Cartesian   -0.03
    774 y        -13.217707    -13.218450    -0.000743    Cartesian    0.01
    774 z         -4.405902     -4.409412    -0.003510    Cartesian    0.08
    775 x          8.811805      8.811988     0.000184    Cartesian    0.00
    775 y         -8.811805     -8.809081     0.002723    Cartesian   -0.03
    775 z         -8.811805     -8.816544    -0.004739    Cartesian    0.05
    776 x         13.217707     13.218940     0.001233    Cartesian    0.01
    776 y          8.811805      8.814416     0.002611    Cartesian    0.03
    776 z          8.811805      8.808626    -0.003179    Cartesian   -0.04
    777 x         17.623609     17.623741     0.000132    Cartesian    0.00
    777 y          0.000000      0.003780     0.003780    Cartesian    0.00
    777 z          0.000000     -0.002311    -0.002311    Cartesian    0.00
    778 x         15.420658     15.420682     0.000024    Cartesian    0.00
    778 y         -2.202951     -2.202092     0.000859    Cartesian   -0.04
    778 z         -6.608853     -6.609775    -0.000922    Cartesian    0.01
    779 x          2.202951      2.202951     0.000000    Cartesian    0.00
    779 y         11.014756     11.019683     0.004927    Cartesian    0.04
    779 z        -11.014756    -11.016283    -0.001527    Cartesian    0.01
    780 x          2.202951      2.202951     0.000000    Cartesian    0.00
    780 y        -11.014756    -11.015621    -0.000865    Cartesian    0.01
    780 z         11.014756     11.012038    -0.002718    Cartesian   -0.02
    781 x         15.420658     15.420952     0.000294    Cartesian    0.00
    781 y         -6.608853     -6.607778     0.001075    Cartesian   -0.02
    781 z         -2.202951     -2.203619    -0.000667    Cartesian    0.03
    782 x          4.405902      4.405619    -0.000283    Cartesian   -0.01
    782 y         13.217707     13.216623    -0.001084    Cartesian   -0.01
    782 z         -8.811805     -8.815754    -0.003949    Cartesian    0.04
    783 x          4.405902      4.405608    -0.000295    Cartesian   -0.01
    783 y         -8.811805     -8.809066     0.002739    Cartesian   -0.03
    783 z         13.217707     13.222178     0.004471    Cartesian    0.03
    784 x          8.811805      8.813783     0.001979    Cartesian    0.02
    784 y          0.000000      0.001788     0.001788    Cartesian    0.00
    784 z        -13.217707    -13.221021    -0.003314    Cartesian    0.03
    785 x          8.811805      8.810897    -0.000907    Cartesian   -0.01
    785 y          8.811805      8.814697     0.002893    Cartesian    0.03
    785 z         13.217707     13.216891    -0.000816    Cartesian   -0.01
    786 x          8.811805      8.811628    -0.000177    Cartesian   -0.00
    786 y         13.217707     13.220796     0.003089    Cartesian    0.02
    786 z          8.811805      8.809728    -0.002077    Cartesian   -0.02
    787 x          8.811805      8.813246     0.001442    Cartesian    0.02
    787 y        -13.217707    -13.218633    -0.000926    Cartesian    0.01
    787 z          0.000000      0.000337     0.000337    Cartesian    0.00
    788 x         13.217707     13.218542     0.000835    Cartesian    0.01
    788 y         -4.405902     -4.402826     0.003077    Cartesian   -0.07
    788 z         -8.811805     -8.813977    -0.002172    Cartesian    0.02
    789 x         17.623609     17.621755    -0.001855    Cartesian   -0.01
    789 y          0.000000      0.003093     0.003093    Cartesian    0.00
    789 z          4.405902      4.403404    -0.002498    Cartesian   -0.06
    790 x         17.623609     17.625017     0.001408    Cartesian    0.01
    790 y          4.405902      4.406621     0.000718    Cartesian    0.02
    790 z          0.000000     -0.002132    -0.002132    Cartesian    0.00
    791 x         13.217707     13.219375     0.001668    Cartesian    0.01
    791 y         -8.811805     -8.809974     0.001831    Cartesian   -0.02
    791 z         -4.405902     -4.408347    -0.002445    Cartesian    0.06
    792 x          6.608853      6.608720    -0.000134    Cartesian   -0.00
    792 y          6.608853      6.608717    -0.000137    Cartesian   -0.00
    792 z         15.420658     15.421330     0.000672    Cartesian    0.00
    793 x          6.608853      6.608737    -0.000116    Cartesian   -0.00
    793 y         15.420658     15.420910     0.000252    Cartesian    0.00
    793 z          6.608853      6.609239     0.000385    Cartesian    0.01
    794 x         11.014756     11.014727    -0.000029    Cartesian   -0.00
    794 y          6.608853      6.609880     0.001027    Cartesian    0.02
    794 z        -11.014756    -11.015765    -0.001009    Cartesian    0.01
    795 x         11.014756     11.016058     0.001302    Cartesian    0.01
    795 y        -11.014756    -11.014517     0.000239    Cartesian   -0.00
    795 z          6.608853      6.608017    -0.000837    Cartesian   -0.01

  Time to end of optimisation  =      118.6530 seconds

  Timing analysis for GULP :

  Task / Subroutine                                          Time (Seconds)
  Calculation of reciprocal space energy and derivatives          0.0004
  Calculation of reciprocal space energy using symmetry           0.0007
  Calculation of real space energy and derivatives                0.0021
  Calculation of real space energy using symmetry                 0.0068
  Calculation for region 1 energy and derivatives (2-b)          64.8541
  Calculation for region 2a energy                               31.0470
  Calculation and manipulation of Hessian matrix                  0.7484
  Calculation of matrix inversion                                21.2771
  Symmetry generation of equivalent positions                     0.0025

  Dump file written as Na3OCl.grs

  Job Finished at 15:22.25  3rd January    2021