  Job Started  at 15:01.46  2nd January    2021

  Number of CPUs =     1

  Total number of configurations input =      1

*  Input for Configuration =   1                                               *

  Formula = ClONa3

  Number of irreducible atoms/shells =       5

  Total number atoms/shells =       7

  Dimensionality = 3               :  Bulk

  Symmetry :

  Crystal family                   :  Cubic
  Crystal class  (Groth - 1921)    :  Cubic Hexakisoctahedral

  Space group (centrosymmetric)    :  P M 3 M

  Patterson group                  :  P m -3 m

  Cartesian lattice vectors (Angstroms) :

        4.504000    0.000000    0.000000
        0.000000    4.504000    0.000000
        0.000000    0.000000    4.504000

  Cell parameters (Angstroms/Degrees):

  a =       4.5040    alpha =  90.0000
  b =       4.5040    beta  =  90.0000
  c =       4.5040    gamma =  90.0000

  Initial cell volume =          91.368216 Angs**3

  Temperature of configuration =   0.00     K

  Pressure of configuration =         0.000 GPa

  Fractional coordinates of asymmetric unit :

   No.  Atomic       x           y          z         Charge      Occupancy
        Label      (Frac)      (Frac)     (Frac)        (e)         (Frac)
      1 Cl    c    0.000000    0.000000    0.000000     1.48500    1.000000
      2 O     c    0.500000    0.500000    0.500000     0.18300    1.000000
      3 Na    c    0.500000    0.500000    0.000000     1.00000    1.000000
      4 Cl    s    0.000000    0.000000    0.000000    -2.48500    1.000000
      5 O     s    0.500000    0.500000    0.500000    -2.18300    1.000000

  Constraints :

  Constraint no.      Unconstrained     Constrained    Coefficient    Offset
                         Variable         Variable
           1              Strain 1        Strain 2       1.00000      0.0000
           2              Strain 1        Strain 3       1.00000      0.0000

*  General input information                                                   *

  Species output for all configurations :

  Species    Type    Atomic    Atomic    Charge       Radii (Angs)     Library
                     Number     Mass       (e)     Cova   Ionic  VDW   Symbol
    Na       Core       11      22.99   1.000000   0.970  0.000  2.300
    O        Core        8      16.00   0.183000   0.730  0.000  1.360
    O        Shell       8       0.00  -2.183000   0.730  0.000  1.360
    Cl       Core       17      35.45   1.485000   0.990  0.000  1.650
    Cl       Shell      17       0.00  -2.485000   0.990  0.000  1.650
    Mg       Core       12      24.31   0.415000   1.100  0.000  0.000
    Mg       Shell      12       0.00   1.585000   1.100  0.000  0.000
    Ca       Core       20      40.08  -1.135000   0.990  0.000  0.000
    Ca       Shell      20       0.00   3.135000   0.990  0.000  0.000
    Sr       Core       38      87.62  -1.251000   1.120  0.000  0.000
    Sr       Shell      38       0.00   3.251000   1.120  0.000  0.000
    Ba       Core       56     137.33  -7.203000   1.340  0.000  0.000
    Ba       Shell      56       0.00   9.203000   1.340  0.000  0.000

  Lattice summation method               =    Ewald          (3-D)
                                         =    Parry          (2-D)
                                         =    Saunders et al (1-D)
  Accuracy factor for lattice sums       =   12.000

  Analytic derivatives to be used

  Time limit = Infinity

  Maximum range for interatomic potentials =    100000.000000 Angstroms

  General interatomic potentials :

Atom  Types   Potential      Parameter       Value         Units   Cutoffs(Ang)
  1     2                                                            Min /  Max
O    c O    s Spring (c-s)  Spring k 2       593.71600    eV*Ang^-2 0.000  0.800
                            Spring k 4       0.0000000    eV*Ang^-4
Cl   c Cl   s Spring (c-s)  Spring k 2       29.380000    eV*Ang^-2 0.000  0.800
                            Spring k 4       0.0000000    eV*Ang^-4
Mg   c Mg   s Spring (c-s)  Spring k 2       361.60000    eV*Ang^-2 0.000  0.800
                            Spring k 4       0.0000000    eV*Ang^-4
Ca   c Ca   s Spring (c-s)  Spring k 2       110.20000    eV*Ang^-2 0.000  0.800
                            Spring k 4       0.0000000    eV*Ang^-4
Sr   c Sr   s Spring (c-s)  Spring k 2       71.700000    eV*Ang^-2 0.000  0.800
                            Spring k 4       0.0000000    eV*Ang^-4
Ba   c Ba   s Spring (c-s)  Spring k 2       495.20000    eV*Ang^-2 0.000  0.800
                            Spring k 4       0.0000000    eV*Ang^-4
Na   c Na   c Buckingham    Buckingham A     1788.1900    eV        0.000 12.000
                            Buckingham rho  0.15900000    Ang
                            Buckingham C     0.0000000    eV*Ang^6
Na   c O    s Buckingham    Buckingham A     588.38000    eV        0.000 12.000
                            Buckingham rho  0.33800000    Ang
                            Buckingham C     0.0000000    eV*Ang^6
Na   c Cl   s Buckingham    Buckingham A     1170.4100    eV        0.000 12.000
                            Buckingham rho  0.31500000    Ang
                            Buckingham C     0.0000000    eV*Ang^6
O    s O    s Buckingham    Buckingham A     22764.300    eV        0.000 12.000
                            Buckingham rho  0.14900000    Ang
                            Buckingham C     13.190000    eV*Ang^6
O    s Cl   s Buckingham    Buckingham A     8286.9100    eV        0.000 12.000
                            Buckingham rho  0.25900000    Ang
                            Buckingham C     62.200000    eV*Ang^6
Cl   s Cl   s Buckingham    Buckingham A     1227.2000    eV        0.000 12.000
                            Buckingham rho  0.32100000    Ang
                            Buckingham C     14.530000    eV*Ang^6
O    s Mg   s Buckingham    Buckingham A     1428.5000    eV        0.000 12.000
                            Buckingham rho  0.29450000    Ang
                            Buckingham C     0.0000000    eV*Ang^6
Mg   s Cl   s Buckingham    Buckingham A     4914.5400    eV        0.000 12.000
                            Buckingham rho  0.25700000    Ang
                            Buckingham C     0.0000000    eV*Ang^6
O    s Ca   s Buckingham    Buckingham A     1090.4000    eV        0.000 12.000
                            Buckingham rho  0.34370000    Ang
                            Buckingham C     0.0000000    eV*Ang^6
Cl   s Ca   s Buckingham    Buckingham A     2302.0000    eV        0.000 12.000
                            Buckingham rho  0.34020000    Ang
                            Buckingham C     0.0000000    eV*Ang^6
O    s Sr   s Buckingham    Buckingham A     959.10000    eV        0.000 12.000
                            Buckingham rho  0.37210000    Ang
                            Buckingham C     0.0000000    eV*Ang^6
Cl   s Sr   s Buckingham    Buckingham A     2191.0900    eV        0.000 12.000
                            Buckingham rho  0.34570000    Ang
                            Buckingham C     0.0000000    eV*Ang^6
O    s Ba   s Buckingham    Buckingham A     905.70000    eV        0.000 12.000
                            Buckingham rho  0.39760000    Ang
                            Buckingham C     0.0000000    eV*Ang^6
Cl   s Ba   s Buckingham    Buckingham A     2704.5500    eV        0.000 12.000
                            Buckingham rho  0.35280000    Ang
                            Buckingham C     0.0000000    eV*Ang^6

*  Output for configuration   1                                                *

  Components of energy :

  Interatomic potentials     =           4.94315381 eV
  Monopole - monopole (real) =         -10.03624526 eV
  Monopole - monopole (recip)=         -29.53581274 eV
  Monopole - monopole (total)=         -39.57205800 eV
  Total lattice energy       =         -34.62890419 eV
  Total lattice energy       =           -3341.1599 kJ/(mole unit cells)

  Number of variables =        1

  Maximum number of calculations  =          1000
  Maximum Hessian update interval =            10
  Maximum step size               =   1.000000000
  Maximum parameter tolerance     =   0.000010000
  Maximum function  tolerance     =   0.000010000
  Maximum gradient  tolerance     =   0.001000000
  Maximum gradient  component     =   0.010000000

  Symmetry constrained optimisation

  Symmetry used for second derivatives

  Cell parameters to be optimised using strains

  Newton-Raphson optimiser to be used

  BFGS hessian update to be used

  Lower half triangular hessian to be used

  Start of bulk optimisation :

  ** Hessian calculated **

  **** Optimisation achieved ****

  Final energy =     -34.67767136 eV
  Final Gnorm  =       0.00000010

  Components of energy :

  Interatomic potentials     =           5.77546103 eV
  Monopole - monopole (real) =         -10.25970290 eV
  Monopole - monopole (recip)=         -30.19342950 eV
  Monopole - monopole (total)=         -40.45313239 eV
  Total lattice energy       =         -34.67767136 eV
  Total lattice energy       =           -3345.8652 kJ/(mole unit cells)

  Final asymmetric unit coordinates :

   No.  Atomic        x           y           z         Radius
        Label       (Frac)      (Frac)      (Frac)       (Angs)
     1  Cl    c     0.000000    0.000000    0.000000    0.000000
     2  O     c     0.500000    0.500000    0.500000    0.000000
     3  Na    c     0.500000    0.500000    0.000000    0.000000
     4  Cl    s     0.000000    0.000000    0.000000    0.000000
     5  O     s     0.500000    0.500000    0.500000    0.000000

  Final Cartesian lattice vectors (Angstroms) :

        4.405902    0.000000    0.000000
        0.000000    4.405902    0.000000
        0.000000    0.000000    4.405902

  Final cell parameters and derivatives :

       a            4.405902 Angstrom     dE/de1(xx)     0.000000 eV/strain
       b            4.405902 Angstrom     dE/de2(yy)     0.000000 eV/strain
       c            4.405902 Angstrom     dE/de3(zz)     0.000000 eV/strain
       alpha       90.000000 Degrees      dE/de4(yz)     0.000000 eV/strain
       beta        90.000000 Degrees      dE/de5(xz)     0.000000 eV/strain
       gamma       90.000000 Degrees      dE/de6(xy)     0.000000 eV/strain

  Primitive cell volume =            85.527266 Angs**3

  Density of cell =      2.338030 g/cm**3

  Non-primitive cell volume =            85.527266 Angs**3

  Final internal derivatives :

   No.  Atomic          a             b             c           Radius
        Label          (eV)          (eV)          (eV)        (eV/Angs)
      1 Cl    c       0.000000      0.000000      0.000000      0.000000
      2 O     c       0.000000      0.000000      0.000000      0.000000
      3 Na    c       0.000000      0.000000      0.000000      0.000000
      4 Cl    s       0.000000      0.000000      0.000000      0.000000
      5 O     s       0.000000      0.000000      0.000000      0.000000
  Maximum abs         0.000000      0.000000      0.000000      0.000000

  Comparison of initial and final structures :

[...]
     67 y         13.217707     13.218508     0.000801    Cartesian    0.01
     67 z         -2.202951     -2.202099     0.000852    Cartesian   -0.04
     68 x          8.811805      8.819408     0.007604    Cartesian    0.09
     68 y          8.811805      8.821954     0.010150    Cartesian    0.12
     68 z          8.811805      8.821954     0.010150    Cartesian    0.12
     69 x         13.217707     13.223993     0.006286    Cartesian    0.05
     69 y          0.000000      0.000000     0.000000    Cartesian    0.00
     69 z          8.811805      8.819647     0.007842    Cartesian    0.09
     70 x          2.202951      2.202951     0.000000    Cartesian    0.00
     70 y         11.014756     11.025304     0.010548    Cartesian    0.10
     70 z          8.811805      8.814657     0.002852    Cartesian    0.03
     71 x         11.014756     11.014973     0.000217    Cartesian    0.00
     71 y          6.608853      6.608833    -0.000021    Cartesian   -0.00
     71 z          8.811805      8.812900     0.001096    Cartesian    0.01
     72 x         11.014756     11.019374     0.004618    Cartesian    0.04
     72 y         11.014756     11.007123    -0.007633    Cartesian   -0.07
     72 z          0.000000      0.000000     0.000000    Cartesian    0.00
     73 x         11.014756     11.011850    -0.002906    Cartesian   -0.03
     73 y         -2.202951     -2.203513    -0.000561    Cartesian    0.03
     73 z         11.014756     11.016665     0.001910    Cartesian    0.02
     74 x          8.811805      8.813457     0.001652    Cartesian    0.02
     74 y          6.608853      6.607582    -0.001272    Cartesian   -0.02
     74 z         11.014756     11.011891    -0.002865    Cartesian   -0.03
     75 x         13.217707     13.217096    -0.000611    Cartesian   -0.00
     75 y          6.608853      6.607321    -0.001532    Cartesian   -0.02
     75 z          6.608853      6.607321    -0.001532    Cartesian   -0.02
     76 x          6.608853      6.609407     0.000554    Cartesian    0.01
     76 y          8.811805      8.810714    -0.001091    Cartesian   -0.01
     76 z         11.014756     11.011936    -0.002820    Cartesian   -0.03
     77 x         11.014756     11.013190    -0.001565    Cartesian   -0.01
     77 y          4.405902      4.406205     0.000303    Cartesian    0.01
     77 z         11.014756     11.011276    -0.003480    Cartesian   -0.03
     78 x          8.811805      8.816104     0.004300    Cartesian    0.05
     78 y          0.000000      0.000000     0.000000    Cartesian    0.00
     78 z         13.217707     13.229902     0.012195    Cartesian    0.09
     79 x         13.217707     13.225745     0.008038    Cartesian    0.06
     79 y          4.405902      4.407524     0.001621    Cartesian    0.04
     79 z          8.811805      8.820753     0.008949    Cartesian    0.10
     80 x          2.202951      2.202951     0.000000    Cartesian    0.00
     80 y          6.608853      6.600322    -0.008532    Cartesian   -0.13
     80 z         13.217707     13.217864     0.000157    Cartesian    0.00
     81 x         15.420658     15.421480     0.000822    Cartesian    0.01
     81 y          6.608853      6.596377    -0.012476    Cartesian   -0.19
     81 z          0.000000      0.000000     0.000000    Cartesian    0.00
     82 x         15.420658     15.420603    -0.000055    Cartesian   -0.00
     82 y         -2.202951     -2.203163    -0.000212    Cartesian    0.01
     82 z          6.608853      6.612975     0.004122    Cartesian    0.06
     83 x          8.811805      8.817504     0.005699    Cartesian    0.06
     83 y          4.405902      4.408634     0.002731    Cartesian    0.06
     83 z         13.217707     13.231403     0.013696    Cartesian    0.10
     84 x         17.623609     17.636440     0.012830    Cartesian    0.07
     84 y          0.000000      0.000000     0.000000    Cartesian    0.00
     84 z          0.000000      0.000000     0.000000    Cartesian    0.00
     85 x          2.202951      2.202951     0.000000    Cartesian    0.00
     85 y         15.420658     15.409947    -0.010711    Cartesian   -0.07
     85 z          0.000000      0.000000     0.000000    Cartesian    0.00
     86 x          6.608853      6.608736    -0.000118    Cartesian   -0.00
     86 y          6.608853      6.603868    -0.004986    Cartesian   -0.08
     86 z         13.217707     13.216521    -0.001186    Cartesian   -0.01
     87 x         15.420658     15.412251    -0.008407    Cartesian   -0.05
     87 y          6.608853      6.603097    -0.005757    Cartesian   -0.09
     87 z          4.405902      4.404853    -0.001049    Cartesian   -0.02
     88 x          2.202951      2.202951     0.000000    Cartesian    0.00
     88 y         -2.202951     -2.204920    -0.001969    Cartesian    0.09
     88 z         15.420658     15.424568     0.003910    Cartesian    0.03
     89 x          2.202951      2.202951     0.000000    Cartesian    0.00
     89 y         11.014756     11.019274     0.004518    Cartesian    0.04
     89 z         11.014756     11.019274     0.004518    Cartesian    0.04
     90 x         11.014756     11.018282     0.003526    Cartesian    0.03
     90 y          6.608853      6.611290     0.002437    Cartesian    0.04
     90 z         11.014756     11.018842     0.004086    Cartesian    0.04
     91 x          4.405902      4.406156     0.000254    Cartesian    0.01
     91 y         11.014756     11.004750    -0.010006    Cartesian   -0.09
     91 z         11.014756     11.004750    -0.010006    Cartesian   -0.09
     92 x          4.405902      4.405384    -0.000518    Cartesian   -0.01
     92 y         15.420658     15.413532    -0.007126    Cartesian   -0.05
     92 z         -2.202951     -2.200381     0.002570    Cartesian   -0.12
     93 x         13.217707     13.213609    -0.004098    Cartesian   -0.03
     93 y         -2.202951     -2.203257    -0.000306    Cartesian    0.01
     93 z         11.014756     10.998959    -0.015796    Cartesian   -0.14
     94 x         17.623609     17.619951    -0.003658    Cartesian   -0.02
     94 y         -2.202951     -2.215125    -0.012173    Cartesian    0.55
     94 z         -2.202951     -2.215125    -0.012173    Cartesian    0.55
     95 x          2.202951      2.202951     0.000000    Cartesian    0.00
     95 y          0.000000      0.000000     0.000000    Cartesian    0.00
     95 z          0.000000      0.000000     0.000000    Cartesian    0.00
     96 x          4.405902      5.187811     0.781909    Cartesian   17.75
     96 y          0.000000      0.000000     0.000000    Cartesian    0.00
     96 z          0.000000      0.000000     0.000000    Cartesian    0.00
     97 x          2.202951      2.202951     0.000000    Cartesian    0.00
     97 y         -2.202951     -2.316945    -0.113994    Cartesian    5.17
     97 z         -2.202951     -2.316945    -0.113994    Cartesian    5.17
     98 x          4.405902      4.398234    -0.007669    Cartesian   -0.17
     98 y          0.000000      0.000000     0.000000    Cartesian    0.00
     98 z          4.405902      4.462049     0.056147    Cartesian    1.27
     99 x          6.608853      6.632074     0.023221    Cartesian    0.35
     99 y         -2.202951     -2.242123    -0.039171    Cartesian    1.78
     99 z         -2.202951     -2.242123    -0.039171    Cartesian    1.78
    100 x          4.405902      4.423756     0.017854    Cartesian    0.41
    100 y          4.405902      4.497978     0.092076    Cartesian    2.09
    100 z          4.405902      4.497978     0.092076    Cartesian    2.09
    101 x          8.811805      8.972326     0.160521    Cartesian    1.82
    101 y          0.000000      0.000000     0.000000    Cartesian    0.00
    101 z          0.000000      0.000000     0.000000    Cartesian    0.00
    102 x          2.202951      2.202951     0.000000    Cartesian    0.00
    102 y         -2.202951     -2.217317    -0.014365    Cartesian    0.65
    102 z          6.608853      6.648007     0.039153    Cartesian    0.59
    103 x          8.811805      8.842223     0.030418    Cartesian    0.35
    103 y          0.000000      0.000000     0.000000    Cartesian    0.00
    103 z          4.405902      4.432051     0.026149    Cartesian    0.59
    104 x          6.608853      6.604341    -0.004513    Cartesian   -0.07
    104 y         -2.202951     -2.206288    -0.003337    Cartesian    0.15
    104 z          6.608853      6.615517     0.006664    Cartesian    0.10
    105 x          8.811805      8.845361     0.033557    Cartesian    0.38
    105 y          4.405902      4.440284     0.034381    Cartesian    0.78
    105 z          4.405902      4.440284     0.034381    Cartesian    0.78
    106 x          4.405902      4.411026     0.005124    Cartesian    0.12
    106 y          0.000000      0.000000     0.000000    Cartesian    0.00
    106 z          8.811805      8.842489     0.030684    Cartesian    0.35
    107 x          2.202951      2.202951     0.000000    Cartesian    0.00
    107 y          6.608853      6.635254     0.026400    Cartesian    0.40
    107 z          6.608853      6.635254     0.026400    Cartesian    0.40
    108 x         11.014756     11.018865     0.004109    Cartesian    0.04
    108 y         -2.202951     -2.213401    -0.010450    Cartesian    0.47
    108 z         -2.202951     -2.213401    -0.010450    Cartesian    0.47
    109 x          4.405902      4.410669     0.004767    Cartesian    0.11
    109 y          4.405902      4.415902     0.010000    Cartesian    0.23
    109 z          8.811805      8.843119     0.031314    Cartesian    0.36
    110 x          6.608853      6.616247     0.007394    Cartesian    0.11
    110 y          6.608853      6.620183     0.011329    Cartesian    0.17
    110 z          6.608853      6.620183     0.011329    Cartesian    0.17
    111 x         13.217707     13.253385     0.035678    Cartesian    0.27
    111 y          0.000000      0.000000     0.000000    Cartesian    0.00
    111 z          0.000000      0.000000     0.000000    Cartesian    0.00
    112 x          8.811805      8.815622     0.003817    Cartesian    0.04
    112 y          0.000000      0.000000     0.000000    Cartesian    0.00
    112 z          8.811805      8.828664     0.016860    Cartesian    0.19
    113 x          2.202951      2.202951     0.000000    Cartesian    0.00
    113 y         -2.202951     -2.202719     0.000232    Cartesian   -0.01
    113 z         11.014756     11.027817     0.013062    Cartesian    0.12
    114 x         11.014756     11.016863     0.002107    Cartesian    0.02
    114 y         -2.202951     -2.204142    -0.001191    Cartesian    0.05
    114 z          6.608853      6.611639     0.002786    Cartesian    0.04
    115 x          8.811805      8.820040     0.008236    Cartesian    0.09
    115 y          4.405902      4.412122     0.006220    Cartesian    0.14
    115 z          8.811805      8.830986     0.019181    Cartesian    0.22
    116 x         13.217707     13.232396     0.014690    Cartesian    0.11
    116 y          0.000000      0.000000     0.000000    Cartesian    0.00
    116 z          4.405902      4.418895     0.012993    Cartesian    0.29
    117 x          6.608853      6.612894     0.004040    Cartesian    0.06
    117 y         -2.202951     -2.203698    -0.000747    Cartesian    0.03
    117 z         11.014756     11.019867     0.005111    Cartesian    0.05
    118 x         13.217707     13.231808     0.014101    Cartesian    0.11
    118 y          4.405902      4.415314     0.009412    Cartesian    0.21
    118 z          4.405902      4.415314     0.009412    Cartesian    0.21
    119 x          4.405902      4.406959     0.001057    Cartesian    0.02
    119 y          8.811805      8.830306     0.018502    Cartesian    0.21
    119 z          8.811805      8.830306     0.018502    Cartesian    0.21
    120 x          2.202951      2.202951     0.000000    Cartesian    0.00
    120 y          6.608853      6.612667     0.003814    Cartesian    0.06
    120 z         11.014756     11.021835     0.007079    Cartesian    0.06
    121 x         11.014756     11.019020     0.004265    Cartesian    0.04
    121 y          6.608853      6.613315     0.004461    Cartesian    0.07
    121 z          6.608853      6.613315     0.004461    Cartesian    0.07
    122 x          4.405902      4.407185     0.001283    Cartesian    0.03
    122 y          0.000000      0.000000     0.000000    Cartesian    0.00
    122 z         13.217707     13.232958     0.015251    Cartesian    0.12
    123 x         15.420658     15.420520    -0.000138    Cartesian   -0.00
    123 y         -2.202951     -2.201173     0.001779    Cartesian   -0.08
    123 z         -2.202951     -2.201173     0.001779    Cartesian   -0.08
    124 x          6.608853      6.611429     0.002576    Cartesian    0.04
    124 y          6.608853      6.609391     0.000537    Cartesian    0.01
    124 z         11.014756     11.018304     0.003548    Cartesian    0.03
    125 x          4.405902      4.407793     0.001890    Cartesian    0.04
    125 y         13.217707     13.232360     0.014653    Cartesian    0.11
    125 z          4.405902      4.407801     0.001899    Cartesian    0.04
    126 x          8.811805      8.820096     0.008291    Cartesian    0.09
    126 y          8.811805      8.823136     0.011332    Cartesian    0.13
    126 z          8.811805      8.823136     0.011332    Cartesian    0.13
    127 x         13.217707     13.225868     0.008161    Cartesian    0.06
    127 y          0.000000      0.000000     0.000000    Cartesian    0.00
    127 z          8.811805      8.820248     0.008443    Cartesian    0.10
    128 x         11.014756     11.011843    -0.002913    Cartesian   -0.03
    128 y         -2.202951     -2.203513    -0.000562    Cartesian    0.03
    128 z         11.014756     11.016669     0.001913    Cartesian    0.02
    129 x          8.811805      8.816802     0.004997    Cartesian    0.06
    129 y          0.000000      0.000000     0.000000    Cartesian    0.00
    129 z         13.217707     13.230965     0.013258    Cartesian    0.10
    130 x         13.217707     13.227306     0.009599    Cartesian    0.07
    130 y          4.405902      4.407518     0.001615    Cartesian    0.04
    130 z          8.811805      8.821757     0.009953    Cartesian    0.11
    131 x         15.420658     15.420598    -0.000060    Cartesian   -0.00
    131 y         -2.202951     -2.203164    -0.000213    Cartesian    0.01
    131 z          6.608853      6.612986     0.004132    Cartesian    0.06
    132 x          8.811805      8.818228     0.006423    Cartesian    0.07
    132 y          4.405902      4.408851     0.002949    Cartesian    0.07
    132 z         13.217707     13.232876     0.015169    Cartesian    0.11
    133 x         17.623609     17.636522     0.012913    Cartesian    0.07
    133 y          0.000000      0.000000     0.000000    Cartesian    0.00
    133 z          0.000000      0.000000     0.000000    Cartesian    0.00
    134 x          2.202951      2.202951     0.000000    Cartesian    0.00
    134 y         -2.202951     -2.204926    -0.001975    Cartesian    0.09
    134 z         15.420658     15.424566     0.003908    Cartesian    0.03
    135 x          2.202951      2.202951     0.000000    Cartesian    0.00
    135 y         11.014756     11.019276     0.004521    Cartesian    0.04
    135 z         11.014756     11.019276     0.004521    Cartesian    0.04
    136 x         11.014756     11.018285     0.003530    Cartesian    0.03
    136 y          6.608853      6.611294     0.002440    Cartesian    0.04
    136 z         11.014756     11.018846     0.004090    Cartesian    0.04

  Time to end of optimisation  =       10.2947 seconds

  Timing analysis for GULP :

  Task / Subroutine                                          Time (Seconds)
  Calculation of reciprocal space energy and derivatives          0.0003
  Calculation of reciprocal space energy using symmetry           0.0006
  Calculation of real space energy and derivatives                0.0021
  Calculation of real space energy using symmetry                 0.0066
  Calculation for region 1 energy and derivatives (2-b)           5.4111
  Calculation for region 2a energy                                4.4482
  Calculation and manipulation of Hessian matrix                  0.2619
  Calculation of matrix inversion                                 0.0110
  Symmetry generation of equivalent positions                     0.0028

  Dump file written as Na3OCl.grs

  Job Finished at 15:01.56  2nd January    2021