  Job Started  at 00:23.36 26th August     2021

  Number of CPUs =     1

  Total number of configurations input =      1

*  Input for Configuration =   1                                               *

  Formula = ClONa3

  Number of irreducible atoms/shells =       5

  Total number atoms/shells =       7

  Dimensionality = 3               :  Bulk

  Symmetry :

  Crystal family                   :  Cubic
  Crystal class  (Groth - 1921)    :  Cubic Hexakisoctahedral

  Space group (centrosymmetric)    :  P M 3 M

  Patterson group                  :  P m -3 m

  Cartesian lattice vectors (Angstroms) :

        4.504000    0.000000    0.000000
        0.000000    4.504000    0.000000
        0.000000    0.000000    4.504000

  Cell parameters (Angstroms/Degrees):

  a =       4.5040    alpha =  90.0000
  b =       4.5040    beta  =  90.0000
  c =       4.5040    gamma =  90.0000

  Initial cell volume =          91.368216 Angs**3

  Temperature of configuration =   0.00     K

  Pressure of configuration =         0.000 GPa

  Fractional coordinates of asymmetric unit :

   No.  Atomic       x           y          z         Charge      Occupancy
        Label      (Frac)      (Frac)     (Frac)        (e)         (Frac)
      1 Cl    c    0.000000    0.000000    0.000000     1.48500    1.000000
      2 O     c    0.500000    0.500000    0.500000     0.18300    1.000000
      3 Na    c    0.500000    0.500000    0.000000     1.00000    1.000000
      4 Cl    s    0.000000    0.000000    0.000000    -2.48500    1.000000
      5 O     s    0.500000    0.500000    0.500000    -2.18300    1.000000

  Constraints :

  Constraint no.      Unconstrained     Constrained    Coefficient    Offset
                         Variable         Variable
           1              Strain 1        Strain 2       1.00000      0.0000
           2              Strain 1        Strain 3       1.00000      0.0000

*  General input information                                                   *

  Species output for all configurations :

  Species    Type    Atomic    Atomic    Charge       Radii (Angs)     Library
                     Number     Mass       (e)     Cova   Ionic  VDW   Symbol
    Na       Core       11      22.99   1.000000   0.970  0.000  2.300
    O        Core        8      16.00   0.183000   0.730  0.000  1.360
    O        Shell       8       0.00  -2.183000   0.730  0.000  1.360
    Cl       Core       17      35.45   1.485000   0.990  0.000  1.650
    Cl       Shell      17       0.00  -2.485000   0.990  0.000  1.650
    Mg       Core       12      24.31   0.415000   1.100  0.000  0.000
    Mg       Shell      12       0.00   1.585000   1.100  0.000  0.000
    Ca       Core       20      40.08  -1.135000   0.990  0.000  0.000
    Ca       Shell      20       0.00   3.135000   0.990  0.000  0.000
    Sr       Core       38      87.62  -1.251000   1.120  0.000  0.000
    Sr       Shell      38       0.00   3.251000   1.120  0.000  0.000
    Ba       Core       56     137.33  -7.203000   1.340  0.000  0.000
    Ba       Shell      56       0.00   9.203000   1.340  0.000  0.000
    Al       Core       13      26.98   3.000000   1.350  0.000  0.000
    Ga       Core       31      69.72   3.000000   1.220  0.000  0.000

  Lattice summation method               =    Ewald          (3-D)
                                         =    Parry          (2-D)
                                         =    Saunders et al (1-D)
  Accuracy factor for lattice sums       =   12.000

  Analytic derivatives to be used

  Time limit = Infinity

  Maximum range for interatomic potentials =    100000.000000 Angstroms

  General interatomic potentials :

Atom  Types   Potential      Parameter       Value         Units   Cutoffs(Ang)
  1     2                                                            Min /  Max
O    c O    s Spring (c-s)  Spring k 2       593.71600    eV*Ang^-2 0.000  0.800
                            Spring k 4       0.0000000    eV*Ang^-4
Cl   c Cl   s Spring (c-s)  Spring k 2       29.380000    eV*Ang^-2 0.000  0.800
                            Spring k 4       0.0000000    eV*Ang^-4
Mg   c Mg   s Spring (c-s)  Spring k 2       361.60000    eV*Ang^-2 0.000  0.800
                            Spring k 4       0.0000000    eV*Ang^-4
Ca   c Ca   s Spring (c-s)  Spring k 2       110.20000    eV*Ang^-2 0.000  0.800
                            Spring k 4       0.0000000    eV*Ang^-4
Sr   c Sr   s Spring (c-s)  Spring k 2       71.700000    eV*Ang^-2 0.000  0.800
                            Spring k 4       0.0000000    eV*Ang^-4
Ba   c Ba   s Spring (c-s)  Spring k 2       495.20000    eV*Ang^-2 0.000  0.800
                            Spring k 4       0.0000000    eV*Ang^-4
Na   c Na   c Buckingham    Buckingham A     1788.1900    eV        0.000 12.000
                            Buckingham rho  0.15900000    Ang
                            Buckingham C     0.0000000    eV*Ang^6
Na   c O    s Buckingham    Buckingham A     588.38000    eV        0.000 12.000
                            Buckingham rho  0.33800000    Ang
                            Buckingham C     0.0000000    eV*Ang^6
Na   c Cl   s Buckingham    Buckingham A     1170.4100    eV        0.000 12.000
                            Buckingham rho  0.31500000    Ang
                            Buckingham C     0.0000000    eV*Ang^6
O    s O    s Buckingham    Buckingham A     22764.300    eV        0.000 12.000
                            Buckingham rho  0.14900000    Ang
                            Buckingham C     13.190000    eV*Ang^6
O    s Cl   s Buckingham    Buckingham A     8286.9100    eV        0.000 12.000
                            Buckingham rho  0.25900000    Ang
                            Buckingham C     62.200000    eV*Ang^6
Cl   s Cl   s Buckingham    Buckingham A     1227.2000    eV        0.000 12.000
                            Buckingham rho  0.32100000    Ang
                            Buckingham C     14.530000    eV*Ang^6
O    s Mg   s Buckingham    Buckingham A     1428.5000    eV        0.000 12.000
                            Buckingham rho  0.29450000    Ang
                            Buckingham C     0.0000000    eV*Ang^6
Mg   s Cl   s Buckingham    Buckingham A     4914.5400    eV        0.000 12.000
                            Buckingham rho  0.25700000    Ang
                            Buckingham C     0.0000000    eV*Ang^6
O    s Ca   s Buckingham    Buckingham A     1090.4000    eV        0.000 12.000
                            Buckingham rho  0.34370000    Ang
                            Buckingham C     0.0000000    eV*Ang^6
Cl   s Ca   s Buckingham    Buckingham A     2302.0000    eV        0.000 12.000
                            Buckingham rho  0.34020000    Ang
                            Buckingham C     0.0000000    eV*Ang^6
O    s Sr   s Buckingham    Buckingham A     959.10000    eV        0.000 12.000
                            Buckingham rho  0.37210000    Ang
                            Buckingham C     0.0000000    eV*Ang^6
Cl   s Sr   s Buckingham    Buckingham A     2191.0900    eV        0.000 12.000
                            Buckingham rho  0.34570000    Ang
                            Buckingham C     0.0000000    eV*Ang^6
O    s Ba   s Buckingham    Buckingham A     905.70000    eV        0.000 12.000
                            Buckingham rho  0.39760000    Ang
                            Buckingham C     0.0000000    eV*Ang^6
Cl   s Ba   s Buckingham    Buckingham A     2704.5500    eV        0.000 12.000
                            Buckingham rho  0.35280000    Ang
                            Buckingham C     0.0000000    eV*Ang^6
Al   c O    s Buckingham    Buckingham A     1725.0000    eV        0.000 12.000
                            Buckingham rho  0.28970000    Ang
                            Buckingham C     0.0000000    eV*Ang^6
Al   c Cl   s Buckingham    Buckingham A     1736.1200    eV        0.000 12.000
                            Buckingham rho  0.29170000    Ang
                            Buckingham C     0.0000000    eV*Ang^6
Ga   c O    s Buckingham    Buckingham A     2901.1200    eV        0.000 12.000
                            Buckingham rho  0.27420000    Ang
                            Buckingham C     0.0000000    eV*Ang^6
Ga   c Cl   s Buckingham    Buckingham A     924.20000    eV        0.000 12.000
                            Buckingham rho  0.34280000    Ang
                            Buckingham C     0.0000000    eV*Ang^6

*  Output for configuration   1                                                *

  Components of energy :

  Interatomic potentials     =           4.94315381 eV
  Monopole - monopole (real) =         -10.03624526 eV
  Monopole - monopole (recip)=         -29.53581274 eV
  Monopole - monopole (total)=         -39.57205800 eV
  Total lattice energy       =         -34.62890419 eV
  Total lattice energy       =           -3341.1599 kJ/(mole unit cells)

  Number of variables =        1

  Maximum number of calculations  =          1000
  Maximum Hessian update interval =            10
  Maximum step size               =   1.000000000
  Maximum parameter tolerance     =   0.000010000
  Maximum function  tolerance     =   0.000010000
  Maximum gradient  tolerance     =   0.001000000
  Maximum gradient  component     =   0.010000000

  Symmetry constrained optimisation

  Symmetry used for second derivatives

  Cell parameters to be optimised using strains

  Newton-Raphson optimiser to be used

  BFGS hessian update to be used

  Lower half triangular hessian to be used

  Start of bulk optimisation :

  ** Hessian calculated **

  **** Optimisation achieved ****

  Final energy =     -34.67767136 eV
  Final Gnorm  =       0.00000010

  Components of energy :

  Interatomic potentials     =           5.77546103 eV
  Monopole - monopole (real) =         -10.25970290 eV
  Monopole - monopole (recip)=         -30.19342950 eV
  Monopole - monopole (total)=         -40.45313239 eV
  Total lattice energy       =         -34.67767136 eV
  Total lattice energy       =           -3345.8652 kJ/(mole unit cells)

  Final asymmetric unit coordinates :

   No.  Atomic        x           y           z         Radius
        Label       (Frac)      (Frac)      (Frac)       (Angs)
     1  Cl    c     0.000000    0.000000    0.000000    0.000000
     2  O     c     0.500000    0.500000    0.500000    0.000000
     3  Na    c     0.500000    0.500000    0.000000    0.000000
     4  Cl    s     0.000000    0.000000    0.000000    0.000000
     5  O     s     0.500000    0.500000    0.500000    0.000000

  Final Cartesian lattice vectors (Angstroms) :

        4.405902    0.000000    0.000000
        0.000000    4.405902    0.000000
        0.000000    0.000000    4.405902

  Final cell parameters and derivatives :

       a            4.405902 Angstrom     dE/de1(xx)     0.000000 eV/strain
       b            4.405902 Angstrom     dE/de2(yy)     0.000000 eV/strain
       c            4.405902 Angstrom     dE/de3(zz)     0.000000 eV/strain
       alpha       90.000000 Degrees      dE/de4(yz)     0.000000 eV/strain
[...]
    725 z          4.405902      4.396761    -0.009141    Cartesian   -0.21
    726 x          4.405902      4.405590    -0.000313    Cartesian   -0.01
    726 y         -8.811805     -8.794504     0.017301    Cartesian   -0.20
    726 z         -8.811805     -8.808861     0.002944    Cartesian   -0.03
    727 x          8.811805      8.814861     0.003057    Cartesian    0.03
    727 y         -8.811805     -8.805383     0.006422    Cartesian   -0.07
    727 z          8.811805      8.808337    -0.003468    Cartesian   -0.04
    728 x          2.202951      2.202951     0.000000    Cartesian    0.00
    728 y          2.202951      2.197335    -0.005616    Cartesian   -0.25
    728 z         15.420658     15.411064    -0.009594    Cartesian   -0.06
    729 x          2.202951      2.202951     0.000000    Cartesian    0.00
    729 y         15.420658     15.426924     0.006266    Cartesian    0.04
    729 z          2.202951      2.209608     0.006657    Cartesian    0.30
    730 x          2.202951      2.202951     0.000000    Cartesian    0.00
    730 y         -6.608853     -6.610755    -0.001902    Cartesian    0.03
    730 z        -11.014756    -11.009596     0.005160    Cartesian   -0.05
    731 x          2.202951      2.202951     0.000000    Cartesian    0.00
    731 y        -11.014756    -11.011471     0.003285    Cartesian   -0.03
    731 z         -6.608853     -6.604188     0.004665    Cartesian   -0.07
    732 x         11.014756     11.016172     0.001416    Cartesian    0.01
    732 y          6.608853      6.608967     0.000114    Cartesian    0.00
    732 z         11.014756     11.016665     0.001910    Cartesian    0.02
    733 x         11.014756     11.015874     0.001118    Cartesian    0.01
    733 y         11.014756     11.015175     0.000419    Cartesian    0.00
    733 z          6.608853      6.608809    -0.000045    Cartesian   -0.00
    734 x         15.420658     15.421120     0.000462    Cartesian    0.00
    734 y          2.202951      2.204446     0.001495    Cartesian    0.07
    734 z          6.608853      6.605920    -0.002934    Cartesian   -0.04
    735 x         15.420658     15.419865    -0.000793    Cartesian   -0.01
    735 y          6.608853      6.614131     0.005277    Cartesian    0.08
    735 z          2.202951      2.202353    -0.000598    Cartesian   -0.03
    736 x          4.405902      4.401618    -0.004285    Cartesian   -0.10
    736 y          0.000000      0.006102     0.006102    Cartesian    0.00
    736 z        -13.217707    -13.202164     0.015543    Cartesian   -0.12
    737 x          4.405902      4.407213     0.001310    Cartesian    0.03
    737 y        -13.217707    -13.209968     0.007739    Cartesian   -0.06
    737 z          0.000000     -0.006382    -0.006382    Cartesian    0.00
    738 x          4.405902      4.402954    -0.002948    Cartesian   -0.07
    738 y          8.811805      8.811296    -0.000508    Cartesian   -0.01
    738 z         13.217707     13.203122    -0.014585    Cartesian   -0.11
    739 x          4.405902      4.404124    -0.001778    Cartesian   -0.04
    739 y         13.217707     13.212872    -0.004835    Cartesian   -0.04
    739 z          8.811805      8.802061    -0.009743    Cartesian   -0.11
    740 x         13.217707     13.206288    -0.011419    Cartesian   -0.09
    740 y          8.811805      8.809599    -0.002205    Cartesian   -0.03
    740 z         -4.405902     -4.406250    -0.000348    Cartesian    0.01
    741 x         13.217707     13.213895    -0.003812    Cartesian   -0.03
    741 y         -4.405902     -4.400203     0.005700    Cartesian   -0.13
    741 z          8.811805      8.803103    -0.008701    Cartesian   -0.10
    742 x          2.202951      2.202951     0.000000    Cartesian    0.00
    742 y         15.420658     15.426897     0.006239    Cartesian    0.04
    742 z         -2.202951     -2.210639    -0.007688    Cartesian    0.35
    743 x          2.202951      2.202951     0.000000    Cartesian    0.00
    743 y         -2.202951     -2.196120     0.006831    Cartesian   -0.31
    743 z         15.420658     15.415024    -0.005635    Cartesian   -0.04
    744 x          6.608853      6.608223    -0.000631    Cartesian   -0.01
    744 y         11.014756     11.013211    -0.001545    Cartesian   -0.01
    744 z         11.014756     11.013460    -0.001296    Cartesian   -0.01
    745 x         15.420658     15.422408     0.001750    Cartesian    0.01
    745 y          6.608853      6.610086     0.001232    Cartesian    0.02
    745 z         -2.202951     -2.203552    -0.000601    Cartesian    0.03
    746 x         15.420658     15.419324    -0.001334    Cartesian   -0.01
    746 y         -2.202951     -2.203861    -0.000910    Cartesian    0.04
    746 z          6.608853      6.609342     0.000489    Cartesian    0.01
    747 x          4.405902      4.406846     0.000943    Cartesian    0.02
    747 y        -13.217707    -13.209184     0.008522    Cartesian   -0.06
    747 z          4.405902      4.401780    -0.004123    Cartesian   -0.09
    748 x          4.405902      4.401831    -0.004071    Cartesian   -0.09
    748 y          4.405902      4.403252    -0.002650    Cartesian   -0.06
    748 z        -13.217707    -13.201933     0.015774    Cartesian   -0.12
    749 x          8.811805      8.809448    -0.002357    Cartesian   -0.03
    749 y         -4.405902     -4.399672     0.006230    Cartesian   -0.14
    749 z         13.217707     13.208714    -0.008993    Cartesian   -0.07
    750 x         13.217707     13.206330    -0.011377    Cartesian   -0.09
    750 y          0.000000      0.006702     0.006702    Cartesian    0.00
    750 z         -8.811805     -8.807884     0.003921    Cartesian   -0.04
    751 x          8.811805      8.808137    -0.003668    Cartesian   -0.04
    751 y         13.217707     13.208229    -0.009478    Cartesian   -0.07
    751 z         -4.405902     -4.405446     0.000456    Cartesian   -0.01
    752 x         13.217707     13.210502    -0.007205    Cartesian   -0.05
    752 y         -8.811805     -8.799290     0.012515    Cartesian   -0.14
    752 z          0.000000     -0.005277    -0.005277    Cartesian    0.00
    753 x          6.608853      6.608967     0.000113    Cartesian    0.00
    753 y          2.202951      2.203983     0.001031    Cartesian    0.05
    753 z         15.420658     15.417208    -0.003450    Cartesian   -0.02
    754 x          6.608853      6.609304     0.000451    Cartesian    0.01
    754 y         15.420658     15.423221     0.002563    Cartesian    0.02
    754 z          2.202951      2.202038    -0.000913    Cartesian   -0.04
    755 x          6.608853      6.607614    -0.001240    Cartesian   -0.02
    755 y         -6.608853     -6.605312     0.003542    Cartesian   -0.05
    755 z        -11.014756    -11.012667     0.002088    Cartesian   -0.02
    756 x          6.608853      6.609119     0.000266    Cartesian    0.00
    756 y        -11.014756    -11.011588     0.003167    Cartesian   -0.03
    756 z         -6.608853     -6.608704     0.000150    Cartesian   -0.00
    757 x         11.014756     11.014219    -0.000537    Cartesian   -0.00
    757 y          2.202951      2.203072     0.000121    Cartesian    0.01
    757 z        -11.014756    -11.011142     0.003614    Cartesian   -0.03
    758 x         11.014756     11.010992    -0.003763    Cartesian   -0.03
    758 y        -11.014756    -11.012234     0.002522    Cartesian   -0.02
    758 z          2.202951      2.202398    -0.000553    Cartesian   -0.03
    759 x         13.217707     13.205850    -0.011857    Cartesian   -0.09
    759 y          4.405902      4.403824    -0.002078    Cartesian   -0.05
    759 z         -8.811805     -8.805906     0.005898    Cartesian   -0.07
    760 x         13.217707     13.211774    -0.005932    Cartesian   -0.04
    760 y         -8.811805     -8.798705     0.013099    Cartesian   -0.15
    760 z          4.405902      4.398818    -0.007084    Cartesian   -0.16
    761 x          6.608853      6.608955     0.000102    Cartesian    0.00
    761 y         15.420658     15.422134     0.001476    Cartesian    0.01
    761 z         -2.202951     -2.202981    -0.000030    Cartesian    0.00
    762 x          2.202951      2.202951     0.000000    Cartesian    0.00
    762 y          6.608853      6.611096     0.002243    Cartesian    0.03
    762 z         15.420658     15.412008    -0.008650    Cartesian   -0.06
    763 x          2.202951      2.202951     0.000000    Cartesian    0.00
    763 y         15.420658     15.422056     0.001398    Cartesian    0.01
    763 z          6.608853      6.603761    -0.005093    Cartesian   -0.08
    764 x          6.608853      6.607174    -0.001680    Cartesian   -0.03
    764 y         -2.202951     -2.203270    -0.000319    Cartesian    0.01
    764 z         15.420658     15.417420    -0.003238    Cartesian   -0.02
    765 x         11.014756     11.011090    -0.003666    Cartesian   -0.03
    765 y         11.014756     11.011572    -0.003184    Cartesian   -0.03
    765 z         -6.608853     -6.606687     0.002166    Cartesian   -0.03
    766 x         11.014756     11.012084    -0.002672    Cartesian   -0.02
    766 y         -2.202951     -2.201169     0.001782    Cartesian   -0.08
    766 z        -11.014756    -11.012435     0.002321    Cartesian   -0.02
    767 x         11.014756     11.014708    -0.000047    Cartesian   -0.00
    767 y        -11.014756    -11.011845     0.002910    Cartesian   -0.03
    767 z         -2.202951     -2.204374    -0.001423    Cartesian    0.06
    768 x         15.420658     15.421350     0.000692    Cartesian    0.00
    768 y          2.202951      2.203185     0.000234    Cartesian    0.01
    768 z         -6.608853     -6.605798     0.003055    Cartesian   -0.05
    769 x         11.014756     11.013283    -0.001473    Cartesian   -0.01
    769 y         -6.608853     -6.605554     0.003299    Cartesian   -0.05
    769 z         11.014756     11.012146    -0.002610    Cartesian   -0.02
    770 x         15.420658     15.418047    -0.002611    Cartesian   -0.02
    770 y          6.608853      6.607141    -0.001713    Cartesian   -0.03
    770 z          6.608853      6.606999    -0.001854    Cartesian   -0.03
    771 x         15.420658     15.414521    -0.006138    Cartesian   -0.04
    771 y         -6.608853     -6.609616    -0.000763    Cartesian    0.01
    771 z          2.202951      2.202924    -0.000027    Cartesian   -0.00
    772 x          4.405902      4.404037    -0.001865    Cartesian   -0.04
    772 y         -4.405902     -4.396364     0.009538    Cartesian   -0.22
    772 z        -13.217707    -13.203086     0.014621    Cartesian   -0.11
    773 x          4.405902      4.401861    -0.004041    Cartesian   -0.09
    773 y        -13.217707    -13.203186     0.014521    Cartesian   -0.11
    773 z         -4.405902     -4.407134    -0.001232    Cartesian    0.03
    774 x          8.811805      8.805430    -0.006374    Cartesian   -0.07
    774 y         -8.811805     -8.796789     0.015015    Cartesian   -0.17
    774 z         -8.811805     -8.808398     0.003407    Cartesian   -0.04
    775 x         13.217707     13.208156    -0.009551    Cartesian   -0.07
    775 y          8.811805      8.810201    -0.001603    Cartesian   -0.02
    775 z          8.811805      8.802103    -0.009702    Cartesian   -0.11
    776 x         17.623609     17.609146    -0.014464    Cartesian   -0.08
    776 y          0.000000      0.003844     0.003844    Cartesian    0.00
    776 z          0.000000     -0.003229    -0.003229    Cartesian    0.00
    777 x         15.420658     15.416603    -0.004055    Cartesian   -0.03
    777 y         -2.202951     -2.200341     0.002610    Cartesian   -0.12
    777 z         -6.608853     -6.607554     0.001299    Cartesian   -0.02
    778 x          2.202951      2.202951     0.000000    Cartesian    0.00
    778 y         11.014756     11.015618     0.000862    Cartesian    0.01
    778 z        -11.014756    -11.012362     0.002393    Cartesian   -0.02
    779 x          2.202951      2.202951     0.000000    Cartesian    0.00
    779 y        -11.014756    -11.012754     0.002002    Cartesian   -0.02
    779 z         11.014756     11.011787    -0.002969    Cartesian   -0.03
    780 x         15.420658     15.417801    -0.002857    Cartesian   -0.02
    780 y         -6.608853     -6.605126     0.003728    Cartesian   -0.06
    780 z         -2.202951     -2.202331     0.000620    Cartesian   -0.03
    781 x          4.405902      4.402933    -0.002970    Cartesian   -0.07
    781 y         13.217707     13.203991    -0.013716    Cartesian   -0.10
    781 z         -8.811805     -8.806749     0.005056    Cartesian   -0.06
    782 x          4.405902      4.404143    -0.001760    Cartesian   -0.04
    782 y         -8.811805     -8.801113     0.010692    Cartesian   -0.12
    782 z         13.217707     13.208613    -0.009094    Cartesian   -0.07
    783 x          8.811805      8.803965    -0.007840    Cartesian   -0.09
    783 y          0.000000      0.002222     0.002222    Cartesian    0.00
    783 z        -13.217707    -13.201450     0.016257    Cartesian   -0.12
    784 x          8.811805      8.806466    -0.005339    Cartesian   -0.06
    784 y          8.811805      8.809972    -0.001832    Cartesian   -0.02
    784 z         13.217707     13.203324    -0.014383    Cartesian   -0.11
    785 x          8.811805      8.807335    -0.004469    Cartesian   -0.05
    785 y         13.217707     13.208846    -0.008861    Cartesian   -0.07
    785 z          8.811805      8.803289    -0.008515    Cartesian   -0.10
    786 x          8.811805      8.808181    -0.003624    Cartesian   -0.04
    786 y        -13.217707    -13.204297     0.013410    Cartesian   -0.10
    786 z          0.000000      0.000023     0.000023    Cartesian    0.00
    787 x         13.217707     13.205134    -0.012573    Cartesian   -0.10
    787 y         -4.405902     -4.397680     0.008222    Cartesian   -0.19
    787 z         -8.811805     -8.805653     0.006152    Cartesian   -0.07
    788 x         17.623609     17.608351    -0.015258    Cartesian   -0.09
    788 y          0.000000      0.003937     0.003937    Cartesian    0.00
    788 z          4.405902      4.400654    -0.005248    Cartesian   -0.12
    789 x         17.623609     17.609378    -0.014231    Cartesian   -0.08
    789 y          4.405902      4.405677    -0.000225    Cartesian   -0.01
    789 z          0.000000     -0.002365    -0.002365    Cartesian    0.00
    790 x         13.217707     13.207146    -0.010561    Cartesian   -0.08
    790 y         -8.811805     -8.799059     0.012746    Cartesian   -0.14
    790 z         -4.405902     -4.405379     0.000523    Cartesian   -0.01
    791 x          6.608853      6.606977    -0.001877    Cartesian   -0.03
    791 y          6.608853      6.606970    -0.001883    Cartesian   -0.03
    791 z         15.420658     15.416485    -0.004173    Cartesian   -0.03
    792 x          6.608853      6.607559    -0.001294    Cartesian   -0.02
    792 y         15.420658     15.417342    -0.003316    Cartesian   -0.02
    792 z          6.608853      6.607661    -0.001193    Cartesian   -0.02
    793 x         11.014756     11.010872    -0.003884    Cartesian   -0.04
    793 y          6.608853      6.606784    -0.002070    Cartesian   -0.03
    793 z        -11.014756    -11.011073     0.003682    Cartesian   -0.03
    794 x         11.014756     11.013697    -0.001059    Cartesian   -0.01
    794 y        -11.014756    -11.010522     0.004234    Cartesian   -0.04
    794 z          6.608853      6.605766    -0.003087    Cartesian   -0.05

  Time to end of optimisation  =      335.4137 seconds

  Timing analysis for GULP :

  Task / Subroutine                                          Time (Seconds)
  Calculation of reciprocal space energy and derivatives          0.0006
  Calculation of reciprocal space energy using symmetry           0.0011
  Calculation of real space energy and derivatives                0.0034
  Calculation of real space energy using symmetry                 0.0106
  Calculation for region 1 energy and derivatives (2-b)         182.4885
  Calculation for region 2a energy                              111.1596
  Calculation for region 2b energy                                0.0137
  Calculation and manipulation of Hessian matrix                  0.9130
  Calculation of matrix inversion                                39.2549
  Symmetry generation of equivalent positions                     0.0042

  Dump file written as Na3OCl.grs

  Job Finished at 00:29.30 26th August     2021