  Job Started  at 11:15.06 18th October    2021

  Number of CPUs =     1

  Total number of configurations input =      1

*  Input for Configuration =   1                                               *

  Formula = ClONa3

  Number of irreducible atoms/shells =       5

  Total number atoms/shells =       7

  Dimensionality = 3               :  Bulk

  Symmetry :

  Crystal family                   :  Cubic
  Crystal class  (Groth - 1921)    :  Cubic Hexakisoctahedral

  Space group (centrosymmetric)    :  P M 3 M

  Patterson group                  :  P m -3 m

  Cartesian lattice vectors (Angstroms) :

        4.504000    0.000000    0.000000
        0.000000    4.504000    0.000000
        0.000000    0.000000    4.504000

  Cell parameters (Angstroms/Degrees):

  a =       4.5040    alpha =  90.0000
  b =       4.5040    beta  =  90.0000
  c =       4.5040    gamma =  90.0000

  Initial cell volume =          91.368216 Angs**3

  Temperature of configuration =   0.00     K

  Pressure of configuration =         0.000 GPa

  Fractional coordinates of asymmetric unit :

   No.  Atomic       x           y          z         Charge      Occupancy
        Label      (Frac)      (Frac)     (Frac)        (e)         (Frac)
      1 Cl    c    0.000000    0.000000    0.000000     1.48500    1.000000
      2 O     c    0.500000    0.500000    0.500000     0.18300    1.000000
      3 Na    c    0.500000    0.500000    0.000000     1.00000    1.000000
      4 Cl    s    0.000000    0.000000    0.000000    -2.48500    1.000000
      5 O     s    0.500000    0.500000    0.500000    -2.18300    1.000000

  Constraints :

  Constraint no.      Unconstrained     Constrained    Coefficient    Offset
                         Variable         Variable
           1              Strain 1        Strain 2       1.00000      0.0000
           2              Strain 1        Strain 3       1.00000      0.0000

*  General input information                                                   *

  Species output for all configurations :

  Species    Type    Atomic    Atomic    Charge       Radii (Angs)     Library
                     Number     Mass       (e)     Cova   Ionic  VDW   Symbol
    Na       Core       11      22.99   1.000000   0.970  0.000  2.300
    O        Core        8      16.00   0.183000   0.730  0.000  1.360
    O        Shell       8       0.00  -2.183000   0.730  0.000  1.360
    Cl       Core       17      35.45   1.485000   0.990  0.000  1.650
    Cl       Shell      17       0.00  -2.485000   0.990  0.000  1.650
    Mg       Core       12      24.31   0.415000   1.100  0.000  0.000
    Mg       Shell      12       0.00   1.585000   1.100  0.000  0.000
    Ca       Core       20      40.08  -1.135000   0.990  0.000  0.000
    Ca       Shell      20       0.00   3.135000   0.990  0.000  0.000
    Sr       Core       38      87.62  -1.251000   1.120  0.000  0.000
    Sr       Shell      38       0.00   3.251000   1.120  0.000  0.000
    Ba       Core       56     137.33  -7.203000   1.340  0.000  0.000
    Ba       Shell      56       0.00   9.203000   1.340  0.000  0.000
    Al       Core       13      26.98   3.000000   1.350  0.000  0.000
    Ga       Core       31      69.72   3.000000   1.220  0.000  0.000

  Lattice summation method               =    Ewald          (3-D)
                                         =    Parry          (2-D)
                                         =    Saunders et al (1-D)
  Accuracy factor for lattice sums       =   12.000

  Analytic derivatives to be used

  Time limit = Infinity

  Maximum range for interatomic potentials =    100000.000000 Angstroms

  General interatomic potentials :

Atom  Types   Potential      Parameter       Value         Units   Cutoffs(Ang)
  1     2                                                            Min /  Max
O    c O    s Spring (c-s)  Spring k 2       593.71600    eV*Ang^-2 0.000  0.800
                            Spring k 4       0.0000000    eV*Ang^-4
Cl   c Cl   s Spring (c-s)  Spring k 2       29.380000    eV*Ang^-2 0.000  0.800
                            Spring k 4       0.0000000    eV*Ang^-4
Mg   c Mg   s Spring (c-s)  Spring k 2       361.60000    eV*Ang^-2 0.000  0.800
                            Spring k 4       0.0000000    eV*Ang^-4
Ca   c Ca   s Spring (c-s)  Spring k 2       110.20000    eV*Ang^-2 0.000  0.800
                            Spring k 4       0.0000000    eV*Ang^-4
Sr   c Sr   s Spring (c-s)  Spring k 2       71.700000    eV*Ang^-2 0.000  0.800
                            Spring k 4       0.0000000    eV*Ang^-4
Ba   c Ba   s Spring (c-s)  Spring k 2       495.20000    eV*Ang^-2 0.000  0.800
                            Spring k 4       0.0000000    eV*Ang^-4
Na   c Na   c Buckingham    Buckingham A     1788.1900    eV        0.000 12.000
                            Buckingham rho  0.15900000    Ang
                            Buckingham C     0.0000000    eV*Ang^6
Na   c O    s Buckingham    Buckingham A     588.38000    eV        0.000 12.000
                            Buckingham rho  0.33800000    Ang
                            Buckingham C     0.0000000    eV*Ang^6
Na   c Cl   s Buckingham    Buckingham A     1170.4100    eV        0.000 12.000
                            Buckingham rho  0.31500000    Ang
                            Buckingham C     0.0000000    eV*Ang^6
O    s O    s Buckingham    Buckingham A     22764.300    eV        0.000 12.000
                            Buckingham rho  0.14900000    Ang
                            Buckingham C     13.190000    eV*Ang^6
O    s Cl   s Buckingham    Buckingham A     8286.9100    eV        0.000 12.000
                            Buckingham rho  0.25900000    Ang
                            Buckingham C     62.200000    eV*Ang^6
Cl   s Cl   s Buckingham    Buckingham A     1227.2000    eV        0.000 12.000
                            Buckingham rho  0.32100000    Ang
                            Buckingham C     14.530000    eV*Ang^6
O    s Mg   s Buckingham    Buckingham A     1428.5000    eV        0.000 12.000
                            Buckingham rho  0.29450000    Ang
                            Buckingham C     0.0000000    eV*Ang^6
Mg   s Cl   s Buckingham    Buckingham A     4914.5400    eV        0.000 12.000
                            Buckingham rho  0.25700000    Ang
                            Buckingham C     0.0000000    eV*Ang^6
O    s Ca   s Buckingham    Buckingham A     1090.4000    eV        0.000 12.000
                            Buckingham rho  0.34370000    Ang
                            Buckingham C     0.0000000    eV*Ang^6
Cl   s Ca   s Buckingham    Buckingham A     2302.0000    eV        0.000 12.000
                            Buckingham rho  0.34020000    Ang
                            Buckingham C     0.0000000    eV*Ang^6
O    s Sr   s Buckingham    Buckingham A     959.10000    eV        0.000 12.000
                            Buckingham rho  0.37210000    Ang
                            Buckingham C     0.0000000    eV*Ang^6
Cl   s Sr   s Buckingham    Buckingham A     2191.0900    eV        0.000 12.000
                            Buckingham rho  0.34570000    Ang
                            Buckingham C     0.0000000    eV*Ang^6
O    s Ba   s Buckingham    Buckingham A     905.70000    eV        0.000 12.000
                            Buckingham rho  0.39760000    Ang
                            Buckingham C     0.0000000    eV*Ang^6
Cl   s Ba   s Buckingham    Buckingham A     2704.5500    eV        0.000 12.000
                            Buckingham rho  0.35280000    Ang
                            Buckingham C     0.0000000    eV*Ang^6
Al   c O    s Buckingham    Buckingham A     1725.0000    eV        0.000 12.000
                            Buckingham rho  0.28970000    Ang
                            Buckingham C     0.0000000    eV*Ang^6
Al   c Cl   s Buckingham    Buckingham A     1736.1200    eV        0.000 12.000
                            Buckingham rho  0.29170000    Ang
                            Buckingham C     0.0000000    eV*Ang^6
Ga   c O    s Buckingham    Buckingham A     2901.1200    eV        0.000 12.000
                            Buckingham rho  0.27420000    Ang
                            Buckingham C     0.0000000    eV*Ang^6
Ga   c Cl   s Buckingham    Buckingham A     924.20000    eV        0.000 12.000
                            Buckingham rho  0.34280000    Ang
                            Buckingham C     0.0000000    eV*Ang^6

*  Output for configuration   1                                                *

  Components of energy :

  Interatomic potentials     =           4.94315381 eV
  Monopole - monopole (real) =         -10.03624526 eV
  Monopole - monopole (recip)=         -29.53581274 eV
  Monopole - monopole (total)=         -39.57205800 eV
  Total lattice energy       =         -34.62890419 eV
  Total lattice energy       =           -3341.1599 kJ/(mole unit cells)

  Number of variables =        1

  Maximum number of calculations  =          1000
  Maximum Hessian update interval =            10
  Maximum step size               =   1.000000000
  Maximum parameter tolerance     =   0.000010000
  Maximum function  tolerance     =   0.000010000
  Maximum gradient  tolerance     =   0.001000000
  Maximum gradient  component     =   0.010000000

  Symmetry constrained optimisation

  Symmetry used for second derivatives

  Cell parameters to be optimised using strains

  Newton-Raphson optimiser to be used

  BFGS hessian update to be used

  Lower half triangular hessian to be used

  Start of bulk optimisation :

  ** Hessian calculated **

  **** Optimisation achieved ****

  Final energy =     -34.67767136 eV
  Final Gnorm  =       0.00000010

  Components of energy :

  Interatomic potentials     =           5.77546103 eV
  Monopole - monopole (real) =         -10.25970290 eV
  Monopole - monopole (recip)=         -30.19342950 eV
  Monopole - monopole (total)=         -40.45313239 eV
  Total lattice energy       =         -34.67767136 eV
  Total lattice energy       =           -3345.8652 kJ/(mole unit cells)

  Final asymmetric unit coordinates :

   No.  Atomic        x           y           z         Radius
        Label       (Frac)      (Frac)      (Frac)       (Angs)
     1  Cl    c     0.000000    0.000000    0.000000    0.000000
     2  O     c     0.500000    0.500000    0.500000    0.000000
     3  Na    c     0.500000    0.500000    0.000000    0.000000
     4  Cl    s     0.000000    0.000000    0.000000    0.000000
     5  O     s     0.500000    0.500000    0.500000    0.000000

  Final Cartesian lattice vectors (Angstroms) :

        4.405902    0.000000    0.000000
        0.000000    4.405902    0.000000
        0.000000    0.000000    4.405902

  Final cell parameters and derivatives :

       a            4.405902 Angstrom     dE/de1(xx)     0.000000 eV/strain
       b            4.405902 Angstrom     dE/de2(yy)     0.000000 eV/strain
       c            4.405902 Angstrom     dE/de3(zz)     0.000000 eV/strain
       alpha       90.000000 Degrees      dE/de4(yz)     0.000000 eV/strain
[...]
    715 z          8.811805      8.798023    -0.013782    Cartesian   -0.16
    716 x          8.811805      8.813165     0.001361    Cartesian    0.02
    716 y         -8.811805     -8.807973     0.003832    Cartesian   -0.04
    716 z          8.811805      8.800010    -0.011794    Cartesian   -0.13
    717 x          8.811805      8.797224    -0.014580    Cartesian   -0.17
    717 y          8.811805      8.797224    -0.014580    Cartesian   -0.17
    717 z         -8.811805     -8.797660     0.014144    Cartesian   -0.16
    718 x         13.217707     13.203101    -0.014606    Cartesian   -0.11
    718 y         -4.405902     -4.396396     0.009507    Cartesian   -0.22
    718 z         -4.405902     -4.409463    -0.003560    Cartesian    0.08
    719 x         -4.405902     -4.410346    -0.004444    Cartesian    0.10
    719 y         -4.405902     -4.410346    -0.004444    Cartesian    0.10
    719 z         13.217707     13.212145    -0.005562    Cartesian   -0.04
    720 x          8.811805      8.801553    -0.010252    Cartesian   -0.12
    720 y         -4.405902     -4.390456     0.015446    Cartesian   -0.35
    720 z         -8.811805     -8.801794     0.010011    Cartesian   -0.11
    721 x          8.811805      8.809111    -0.002694    Cartesian   -0.03
    721 y         -8.811805     -8.796199     0.015606    Cartesian   -0.18
    721 z         -4.405902     -4.410611    -0.004709    Cartesian    0.11
    722 x         -4.405902     -4.404631     0.001271    Cartesian   -0.03
    722 y         -8.811805     -8.810801     0.001004    Cartesian   -0.01
    722 z          8.811805      8.803054    -0.008750    Cartesian   -0.10
    723 x         -4.405902     -4.393674     0.012228    Cartesian   -0.28
    723 y         -4.405902     -4.393674     0.012228    Cartesian   -0.28
    723 z         -8.811805     -8.807970     0.003835    Cartesian   -0.04
    724 x         -4.405902     -4.400303     0.005599    Cartesian   -0.13
    724 y         -8.811805     -8.802771     0.009034    Cartesian   -0.10
    724 z         -4.405902     -4.411669    -0.005767    Cartesian    0.13
    725 x          6.608853      6.609020     0.000166    Cartesian    0.00
    725 y          6.608853      6.609020     0.000166    Cartesian    0.00
    725 z         15.420658     15.420738     0.000080    Cartesian    0.00
    726 x          6.608853      6.607875    -0.000979    Cartesian   -0.01
    726 y         15.420658     15.417993    -0.002665    Cartesian   -0.02
    726 z          6.608853      6.609370     0.000517    Cartesian    0.01
    727 x          6.608853      6.609469     0.000616    Cartesian    0.01
    727 y         -2.202951     -2.203612    -0.000661    Cartesian    0.03
    727 z         15.420658     15.420939     0.000281    Cartesian    0.00
    728 x          6.608853      6.609768     0.000914    Cartesian    0.01
    728 y         15.420658     15.418684    -0.001974    Cartesian   -0.01
    728 z         -2.202951     -2.202316     0.000635    Cartesian   -0.03
    729 x         15.420658     15.418866    -0.001792    Cartesian   -0.01
    729 y         -2.202951     -2.202437     0.000514    Cartesian   -0.02
    729 z          6.608853      6.609089     0.000236    Cartesian    0.00
    730 x         -2.202951     -2.203588    -0.000637    Cartesian    0.03
    730 y         -2.202951     -2.203588    -0.000637    Cartesian    0.03
    730 z         15.420658     15.421408     0.000750    Cartesian    0.00
    731 x         15.420658     15.419593    -0.001065    Cartesian   -0.01
    731 y         -2.202951     -2.203200    -0.000249    Cartesian    0.01
    731 z         -2.202951     -2.203091    -0.000140    Cartesian    0.01
    732 x          6.608853      6.608330    -0.000523    Cartesian   -0.01
    732 y          6.608853      6.608330    -0.000523    Cartesian   -0.01
    732 z        -11.014756    -11.012273     0.002483    Cartesian   -0.02
    733 x          6.608853      6.608837    -0.000017    Cartesian   -0.00
    733 y        -11.014756    -11.014837    -0.000081    Cartesian    0.00
    733 z          6.608853      6.609810     0.000956    Cartesian    0.01
    734 x          6.608853      6.608337    -0.000517    Cartesian   -0.01
    734 y         -2.202951     -2.202989    -0.000038    Cartesian    0.00
    734 z        -11.014756    -11.013119     0.001636    Cartesian   -0.01
    735 x          6.608853      6.611076     0.002223    Cartesian    0.03
    735 y        -11.014756    -11.016152    -0.001396    Cartesian    0.01
    735 z         -2.202951     -2.203763    -0.000812    Cartesian    0.04
    736 x         -2.202951     -2.202882     0.000070    Cartesian   -0.00
    736 y        -11.014756    -11.015376    -0.000620    Cartesian    0.01
    736 z          6.608853      6.609968     0.001115    Cartesian    0.02
    737 x         -2.202951     -2.203332    -0.000381    Cartesian    0.02
    737 y         -2.202951     -2.203332    -0.000381    Cartesian    0.02
    737 z        -11.014756    -11.014383     0.000373    Cartesian   -0.00
    738 x         -2.202951     -2.204925    -0.001974    Cartesian    0.09
    738 y        -11.014756    -11.017634    -0.002878    Cartesian    0.03
    738 z         -2.202951     -2.203947    -0.000996    Cartesian    0.05
    739 x         11.014756     11.012973    -0.001783    Cartesian   -0.02
    739 y         11.014756     11.012973    -0.001783    Cartesian   -0.02
    739 z         11.014756     11.010619    -0.004137    Cartesian   -0.04
    740 x         11.014756     11.013715    -0.001041    Cartesian   -0.01
    740 y         -6.608853     -6.607323     0.001530    Cartesian   -0.02
    740 z         11.014756     11.011399    -0.003357    Cartesian   -0.03
    741 x         11.014756     11.009042    -0.005714    Cartesian   -0.05
    741 y         11.014756     11.009042    -0.005714    Cartesian   -0.05
    741 z         -6.608853     -6.604703     0.004151    Cartesian   -0.06
    742 x         11.014756     11.010001    -0.004755    Cartesian   -0.04
    742 y         -6.608853     -6.604141     0.004713    Cartesian   -0.07
    742 z         -6.608853     -6.605940     0.002913    Cartesian   -0.04
    743 x         -6.608853     -6.608221     0.000632    Cartesian   -0.01
    743 y         -6.608853     -6.608221     0.000632    Cartesian   -0.01
    743 z         11.014756     11.011990    -0.002765    Cartesian   -0.03
    744 x         -6.608853     -6.606127     0.002727    Cartesian   -0.04
    744 y         -6.608853     -6.606127     0.002727    Cartesian   -0.04
    744 z         -6.608853     -6.607755     0.001098    Cartesian   -0.02
    745 x          4.405902      4.405814    -0.000088    Cartesian   -0.00
    745 y         13.217707     13.215790    -0.001916    Cartesian   -0.01
    745 z         13.217707     13.203782    -0.013925    Cartesian   -0.11
    746 x         13.217707     13.208178    -0.009528    Cartesian   -0.07
    746 y         13.217707     13.208178    -0.009528    Cartesian   -0.07
    746 z          4.405902      4.395718    -0.010184    Cartesian   -0.23
    747 x          4.405902      4.408301     0.002399    Cartesian    0.05
    747 y          4.405902      4.408301     0.002399    Cartesian    0.05
    747 z         17.623609     17.614089    -0.009520    Cartesian   -0.05
    748 x          4.405902      4.406351     0.000448    Cartesian    0.01
    748 y         17.623609     17.608229    -0.015380    Cartesian   -0.09
    748 z          4.405902      4.397043    -0.008860    Cartesian   -0.20
    749 x         13.217707     13.204942    -0.012765    Cartesian   -0.10
    749 y         13.217707     13.204942    -0.012765    Cartesian   -0.10
    749 z          0.000000     -0.005573    -0.005573    Cartesian    0.00
    750 x         13.217707     13.216233    -0.001474    Cartesian   -0.01
    750 y          0.000000      0.002192     0.002192    Cartesian    0.00
    750 z         13.217707     13.204280    -0.013427    Cartesian   -0.10
    751 x          4.405902      4.405346    -0.000556    Cartesian   -0.01
    751 y         17.623609     17.605696    -0.017914    Cartesian   -0.10
    751 z          0.000000     -0.004124    -0.004124    Cartesian    0.00
    752 x          4.405902      4.408476     0.002574    Cartesian    0.06
    752 y          0.000000     -0.000351    -0.000351    Cartesian    0.00
    752 z         17.623609     17.614418    -0.009191    Cartesian   -0.05
    753 x         17.623609     17.608482    -0.015127    Cartesian   -0.09
    753 y          0.000000      0.002722     0.002722    Cartesian    0.00
    753 z          4.405902      4.396958    -0.008945    Cartesian   -0.20
    754 x         17.623609     17.607013    -0.016597    Cartesian   -0.09
    754 y          0.000000      0.001676     0.001676    Cartesian    0.00
    754 z          0.000000     -0.003957    -0.003957    Cartesian    0.00
    755 x          0.000000     -0.000267    -0.000267    Cartesian    0.00
    755 y          0.000000     -0.000267    -0.000267    Cartesian    0.00
    755 z         17.623609     17.614417    -0.009193    Cartesian   -0.05
    756 x          4.405902      4.404204    -0.001698    Cartesian   -0.04
    756 y         13.217707     13.197173    -0.020534    Cartesian   -0.16
    756 z         -8.811805     -8.800366     0.011438    Cartesian   -0.13
    757 x          4.405902      4.407052     0.001149    Cartesian    0.03
    757 y         -8.811805     -8.807433     0.004371    Cartesian   -0.05
    757 z         13.217707     13.204397    -0.013310    Cartesian   -0.10
    758 x         13.217707     13.208741    -0.008966    Cartesian   -0.07
    758 y         -8.811805     -8.800544     0.011260    Cartesian   -0.13
    758 z          4.405902      4.395602    -0.010300    Cartesian   -0.23
    759 x         13.217707     13.198319    -0.019388    Cartesian   -0.15
    759 y          0.000000      0.005091     0.005091    Cartesian    0.00
    759 z         -8.811805     -8.801127     0.010678    Cartesian   -0.12
    760 x         13.217707     13.206942    -0.010765    Cartesian   -0.08
    760 y         -8.811805     -8.797378     0.014427    Cartesian   -0.16
    760 z          0.000000     -0.006394    -0.006394    Cartesian    0.00
    761 x          0.000000      0.001691     0.001691    Cartesian    0.00
    761 y         -8.811805     -8.807931     0.003874    Cartesian   -0.04
    761 z         13.217707     13.205248    -0.012459    Cartesian   -0.09
    762 x          4.405902      4.402740    -0.003163    Cartesian   -0.07
    762 y          4.405902      4.402740    -0.003163    Cartesian   -0.07
    762 z        -13.217707    -13.196740     0.020967    Cartesian   -0.16
    763 x          4.405902      4.402723    -0.003180    Cartesian   -0.07
    763 y        -13.217707    -13.205239     0.012468    Cartesian   -0.09
    763 z          4.405902      4.399320    -0.006582    Cartesian   -0.15
    764 x          4.405902      4.403011    -0.002891    Cartesian   -0.07
    764 y          0.000000      0.006235     0.006235    Cartesian    0.00
    764 z        -13.217707    -13.198912     0.018795    Cartesian   -0.14
    765 x          4.405902      4.408027     0.002125    Cartesian    0.05
    765 y        -13.217707    -13.202394     0.015313    Cartesian   -0.12
    765 z          0.000000     -0.003207    -0.003207    Cartesian    0.00
    766 x          0.000000      0.005987     0.005987    Cartesian    0.00
    766 y        -13.217707    -13.206558     0.011149    Cartesian   -0.08
    766 z          4.405902      4.399118    -0.006784    Cartesian   -0.15
    767 x          4.405902      4.405942     0.000039    Cartesian    0.00
    767 y         -8.811805     -8.794482     0.017322    Cartesian   -0.20
    767 z         -8.811805     -8.804487     0.007318    Cartesian   -0.08
    768 x         -8.811805     -8.804460     0.007345    Cartesian   -0.08
    768 y         -8.811805     -8.804460     0.007345    Cartesian   -0.08
    768 z          4.405902      4.397319    -0.008583    Cartesian   -0.19
    769 x          0.000000      0.006397     0.006397    Cartesian    0.00
    769 y          0.000000      0.006397     0.006397    Cartesian    0.00
    769 z        -13.217707    -13.201054     0.016653    Cartesian   -0.13
    770 x          0.000000      0.001547     0.001547    Cartesian    0.00
    770 y        -13.217707    -13.203945     0.013762    Cartesian   -0.10
    770 z          0.000000     -0.003074    -0.003074    Cartesian    0.00
    771 x          0.000000      0.005290     0.005290    Cartesian    0.00
    771 y         -8.811805     -8.795646     0.016159    Cartesian   -0.18
    771 z         -8.811805     -8.805774     0.006031    Cartesian   -0.07
    772 x         -8.811805     -8.802917     0.008888    Cartesian   -0.10
    772 y         -8.811805     -8.802917     0.008888    Cartesian   -0.10
    772 z          0.000000     -0.005742    -0.005742    Cartesian    0.00
    773 x          2.202951      2.203164     0.000213    Cartesian    0.01
    773 y         11.014756     11.011363    -0.003392    Cartesian   -0.03
    773 z         15.420658     15.419619    -0.001039    Cartesian   -0.01
    774 x          2.202951      2.203056     0.000104    Cartesian    0.00
    774 y         15.420658     15.414429    -0.006229    Cartesian   -0.04
    774 z         11.014756     11.015984     0.001228    Cartesian    0.01
    775 x         11.014756     11.012868    -0.001888    Cartesian   -0.02
    775 y         15.420658     15.417513    -0.003145    Cartesian   -0.02
    775 z          2.202951      2.202609    -0.000342    Cartesian   -0.02
    776 x          2.202951      2.203334     0.000383    Cartesian    0.02
    776 y         15.420658     15.416471    -0.004187    Cartesian   -0.03
    776 z         -6.608853     -6.603449     0.005404    Cartesian   -0.08
    777 x          2.202951      2.203338     0.000386    Cartesian    0.02
    777 y         -6.608853     -6.604593     0.004260    Cartesian   -0.06
    777 z         15.420658     15.418890    -0.001768    Cartesian   -0.01
    778 x         15.420658     15.416017    -0.004641    Cartesian   -0.03
    778 y         -6.608853     -6.605853     0.003000    Cartesian   -0.05
    778 z          2.202951      2.201618    -0.001333    Cartesian   -0.06
    779 x          2.202951      2.203423     0.000472    Cartesian    0.02
    779 y         11.014756     11.011213    -0.003543    Cartesian   -0.03
    779 z        -11.014756    -11.005889     0.008867    Cartesian   -0.08
    780 x          2.202951      2.203333     0.000381    Cartesian    0.02
    780 y        -11.014756    -11.008161     0.006595    Cartesian   -0.06
    780 z         11.014756     11.015003     0.000247    Cartesian    0.00
    781 x         11.014756     11.012479    -0.002277    Cartesian   -0.02
    781 y        -11.014756    -11.010902     0.003854    Cartesian   -0.03
    781 z          2.202951      2.201670    -0.001281    Cartesian   -0.06
    782 x          2.202951      2.203492     0.000541    Cartesian    0.02
    782 y         -6.608853     -6.606378     0.002476    Cartesian   -0.04
    782 z        -11.014756    -11.008530     0.006225    Cartesian   -0.06
    783 x          2.202951      2.203457     0.000506    Cartesian    0.02
    783 y        -11.014756    -11.013210     0.001546    Cartesian   -0.01
    783 z         -6.608853     -6.605078     0.003775    Cartesian   -0.06
    784 x         -6.608853     -6.607119     0.001735    Cartesian   -0.03
    784 y        -11.014756    -11.012161     0.002595    Cartesian   -0.02
    784 z          2.202951      2.202016    -0.000935    Cartesian   -0.04

  Time to end of optimisation  =      751.2326 seconds

  Timing analysis for GULP :

  Task / Subroutine                                          Time (Seconds)
  Calculation of reciprocal space energy and derivatives          0.0002
  Calculation of reciprocal space energy using symmetry           0.0004
  Calculation of real space energy and derivatives                0.0014
  Calculation of real space energy using symmetry                 0.0045
  Calculation for region 1 energy and derivatives (2-b)         147.3458
  Calculation for region 2a energy                               82.3711
  Calculation for region 2b energy                                0.0112
  Calculation and manipulation of Hessian matrix                501.0826
  Calculation of matrix inversion                                19.3794
  Symmetry generation of equivalent positions                     0.0019

  Dump file written as Na3OCl.grs

  Job Finished at 11:27.40 18th October    2021