  Job Started  at 14:13.45  3rd January    2021

  Number of CPUs =     1

  Total number of configurations input =      1

*  Input for Configuration =   1                                               *

  Formula = ClONa3

  Number of irreducible atoms/shells =       5

  Total number atoms/shells =       7

  Dimensionality = 3               :  Bulk

  Symmetry :

  Crystal family                   :  Cubic
  Crystal class  (Groth - 1921)    :  Cubic Hexakisoctahedral

  Space group (centrosymmetric)    :  P M 3 M

  Patterson group                  :  P m -3 m

  Cartesian lattice vectors (Angstroms) :

        4.504000    0.000000    0.000000
        0.000000    4.504000    0.000000
        0.000000    0.000000    4.504000

  Cell parameters (Angstroms/Degrees):

  a =       4.5040    alpha =  90.0000
  b =       4.5040    beta  =  90.0000
  c =       4.5040    gamma =  90.0000

  Initial cell volume =          91.368216 Angs**3

  Temperature of configuration =   0.00     K

  Pressure of configuration =         0.000 GPa

  Fractional coordinates of asymmetric unit :

   No.  Atomic       x           y          z         Charge      Occupancy
        Label      (Frac)      (Frac)     (Frac)        (e)         (Frac)
      1 Cl    c    0.000000    0.000000    0.000000     1.48500    1.000000
      2 O     c    0.500000    0.500000    0.500000     0.18300    1.000000
      3 Na    c    0.500000    0.500000    0.000000     1.00000    1.000000
      4 Cl    s    0.000000    0.000000    0.000000    -2.48500    1.000000
      5 O     s    0.500000    0.500000    0.500000    -2.18300    1.000000

  Constraints :

  Constraint no.      Unconstrained     Constrained    Coefficient    Offset
                         Variable         Variable
           1              Strain 1        Strain 2       1.00000      0.0000
           2              Strain 1        Strain 3       1.00000      0.0000

*  General input information                                                   *

  Species output for all configurations :

  Species    Type    Atomic    Atomic    Charge       Radii (Angs)     Library
                     Number     Mass       (e)     Cova   Ionic  VDW   Symbol
    Na       Core       11      22.99   1.000000   0.970  0.000  2.300
    O        Core        8      16.00   0.183000   0.730  0.000  1.360
    O        Shell       8       0.00  -2.183000   0.730  0.000  1.360
    Cl       Core       17      35.45   1.485000   0.990  0.000  1.650
    Cl       Shell      17       0.00  -2.485000   0.990  0.000  1.650
    Mg       Core       12      24.31   0.415000   1.100  0.000  0.000
    Mg       Shell      12       0.00   1.585000   1.100  0.000  0.000
    Ca       Core       20      40.08  -1.135000   0.990  0.000  0.000
    Ca       Shell      20       0.00   3.135000   0.990  0.000  0.000
    Sr       Core       38      87.62  -1.251000   1.120  0.000  0.000
    Sr       Shell      38       0.00   3.251000   1.120  0.000  0.000
    Ba       Core       56     137.33  -7.203000   1.340  0.000  0.000
    Ba       Shell      56       0.00   9.203000   1.340  0.000  0.000

  Lattice summation method               =    Ewald          (3-D)
                                         =    Parry          (2-D)
                                         =    Saunders et al (1-D)
  Accuracy factor for lattice sums       =   12.000

  Analytic derivatives to be used

  Time limit = Infinity

  Maximum range for interatomic potentials =    100000.000000 Angstroms

  General interatomic potentials :

Atom  Types   Potential      Parameter       Value         Units   Cutoffs(Ang)
  1     2                                                            Min /  Max
O    c O    s Spring (c-s)  Spring k 2       593.71600    eV*Ang^-2 0.000  0.800
                            Spring k 4       0.0000000    eV*Ang^-4
Cl   c Cl   s Spring (c-s)  Spring k 2       29.380000    eV*Ang^-2 0.000  0.800
                            Spring k 4       0.0000000    eV*Ang^-4
Mg   c Mg   s Spring (c-s)  Spring k 2       361.60000    eV*Ang^-2 0.000  0.800
                            Spring k 4       0.0000000    eV*Ang^-4
Ca   c Ca   s Spring (c-s)  Spring k 2       110.20000    eV*Ang^-2 0.000  0.800
                            Spring k 4       0.0000000    eV*Ang^-4
Sr   c Sr   s Spring (c-s)  Spring k 2       71.700000    eV*Ang^-2 0.000  0.800
                            Spring k 4       0.0000000    eV*Ang^-4
Ba   c Ba   s Spring (c-s)  Spring k 2       495.20000    eV*Ang^-2 0.000  0.800
                            Spring k 4       0.0000000    eV*Ang^-4
Na   c Na   c Buckingham    Buckingham A     1788.1900    eV        0.000 12.000
                            Buckingham rho  0.15900000    Ang
                            Buckingham C     0.0000000    eV*Ang^6
Na   c O    s Buckingham    Buckingham A     322.01000    eV        0.000 12.000
                            Buckingham rho  0.38800000    Ang
                            Buckingham C     0.0000000    eV*Ang^6
Na   c Cl   s Buckingham    Buckingham A     1727.8700    eV        0.000 12.000
                            Buckingham rho  0.29700000    Ang
                            Buckingham C     0.0000000    eV*Ang^6
O    s O    s Buckingham    Buckingham A     22764.300    eV        0.000 12.000
                            Buckingham rho  0.14900000    Ang
                            Buckingham C     13.190000    eV*Ang^6
O    s Cl   s Buckingham    Buckingham A     8286.9100    eV        0.000 12.000
                            Buckingham rho  0.25900000    Ang
                            Buckingham C     62.200000    eV*Ang^6
Cl   s Cl   s Buckingham    Buckingham A     1227.2000    eV        0.000 12.000
                            Buckingham rho  0.32100000    Ang
                            Buckingham C     14.530000    eV*Ang^6
O    s Mg   s Buckingham    Buckingham A     1428.5000    eV        0.000 12.000
                            Buckingham rho  0.29450000    Ang
                            Buckingham C     0.0000000    eV*Ang^6
Mg   s Cl   s Buckingham    Buckingham A     4914.5400    eV        0.000 12.000
                            Buckingham rho  0.25700000    Ang
                            Buckingham C     0.0000000    eV*Ang^6
O    s Ca   s Buckingham    Buckingham A     1090.4000    eV        0.000 12.000
                            Buckingham rho  0.34370000    Ang
                            Buckingham C     0.0000000    eV*Ang^6
Cl   s Ca   s Buckingham    Buckingham A     2302.0000    eV        0.000 12.000
                            Buckingham rho  0.34020000    Ang
                            Buckingham C     0.0000000    eV*Ang^6
O    s Sr   s Buckingham    Buckingham A     959.10000    eV        0.000 12.000
                            Buckingham rho  0.37210000    Ang
                            Buckingham C     0.0000000    eV*Ang^6
Cl   s Sr   s Buckingham    Buckingham A     2191.0900    eV        0.000 12.000
                            Buckingham rho  0.34570000    Ang
                            Buckingham C     0.0000000    eV*Ang^6
O    s Ba   s Buckingham    Buckingham A     905.70000    eV        0.000 12.000
                            Buckingham rho  0.39760000    Ang
                            Buckingham C     0.0000000    eV*Ang^6
Cl   s Ba   s Buckingham    Buckingham A     2704.5500    eV        0.000 12.000
                            Buckingham rho  0.35280000    Ang
                            Buckingham C     0.0000000    eV*Ang^6

*  Output for configuration   1                                                *

  Components of energy :

  Interatomic potentials     =           6.15672400 eV
  Monopole - monopole (real) =         -10.03624526 eV
  Monopole - monopole (recip)=         -29.53581274 eV
  Monopole - monopole (total)=         -39.57205800 eV
  Total lattice energy       =         -33.41533400 eV
  Total lattice energy       =           -3224.0689 kJ/(mole unit cells)

  Number of variables =        1

  Maximum number of calculations  =          1000
  Maximum Hessian update interval =            10
  Maximum step size               =   1.000000000
  Maximum parameter tolerance     =   0.000010000
  Maximum function  tolerance     =   0.000010000
  Maximum gradient  tolerance     =   0.001000000
  Maximum gradient  component     =   0.010000000

  Symmetry constrained optimisation

  Symmetry used for second derivatives

  Cell parameters to be optimised using strains

  Newton-Raphson optimiser to be used

  BFGS hessian update to be used

  Lower half triangular hessian to be used

  Start of bulk optimisation :

  ** Hessian calculated **

  **** Optimisation achieved ****

  Final energy =     -33.42006833 eV
  Final Gnorm  =       0.00012371

  Components of energy :

  Interatomic potentials     =           6.44238503 eV
  Monopole - monopole (real) =         -10.10989518 eV
  Monopole - monopole (recip)=         -29.75255817 eV
  Monopole - monopole (total)=         -39.86245335 eV
  Total lattice energy       =         -33.42006833 eV
  Total lattice energy       =           -3224.5257 kJ/(mole unit cells)

  Final asymmetric unit coordinates :

   No.  Atomic        x           y           z         Radius
        Label       (Frac)      (Frac)      (Frac)       (Angs)
     1  Cl    c     0.000000    0.000000    0.000000    0.000000
     2  O     c     0.500000    0.500000    0.500000    0.000000
     3  Na    c     0.500000    0.500000    0.000000    0.000000
     4  Cl    s     0.000000    0.000000    0.000000    0.000000
     5  O     s     0.500000    0.500000    0.500000    0.000000

  Final Cartesian lattice vectors (Angstroms) :

        4.471189    0.000000    0.000000
        0.000000    4.471189    0.000000
        0.000000    0.000000    4.471189

  Final cell parameters and derivatives :

       a            4.471189 Angstrom     dE/de1(xx)     0.000124 eV/strain
       b            4.471189 Angstrom     dE/de2(yy)     0.000000 eV/strain
       c            4.471189 Angstrom     dE/de3(zz)     0.000000 eV/strain
       alpha       90.000000 Degrees      dE/de4(yz)     0.000000 eV/strain
       beta        90.000000 Degrees      dE/de5(xz)     0.000000 eV/strain
       gamma       90.000000 Degrees      dE/de6(xy)     0.000000 eV/strain

  Primitive cell volume =            89.385893 Angs**3

  Density of cell =      2.237101 g/cm**3

  Non-primitive cell volume =            89.385893 Angs**3

  Final internal derivatives :

   No.  Atomic          a             b             c           Radius
        Label          (eV)          (eV)          (eV)        (eV/Angs)
      1 Cl    c       0.000000      0.000000      0.000000      0.000000
      2 O     c       0.000000      0.000000      0.000000      0.000000
      3 Na    c       0.000000      0.000000      0.000000      0.000000
      4 Cl    s       0.000000      0.000000      0.000000      0.000000
      5 O     s       0.000000      0.000000      0.000000      0.000000
  Maximum abs         0.000000      0.000000      0.000000      0.000000

  Comparison of initial and final structures :

[...]
    46  Cl    s      -0.000691      0.000000      0.000000      0.000000
    47  O     s       0.000000     -0.001704      0.007336      0.000000
    48  Cl    s      -0.003859      0.000000     -0.002287      0.000000
    49  O     s       0.000000      0.000000     -0.004295      0.000000
    50  O     s      -0.000317      0.000000     -0.000357      0.000000
    51  Cl    s      -0.000847     -0.001987      0.000000      0.000000
    52  O     s       0.000000      0.003856      0.005929      0.000000
    53  Cl    s       0.002621     -0.000723      0.000704      0.000000
    54  O     s       0.000000      0.006597      0.002769      0.000000
    55  O     s      -0.004734      0.000000      0.000304      0.000000
    56  Cl    s       0.001889      0.000000      0.000152      0.000000
    57  Cl    s       0.000915      0.000000      0.000000      0.000000
    58  O     s       0.000742      0.000356     -0.003639      0.000000
    59  Cl    s      -0.000063      0.000000      0.000109      0.000000
    60  O     s       0.000000      0.000000      0.000404      0.000000
    61  O     s       0.000000     -0.005088      0.006047      0.000000
    62  Cl    s       0.000276     -0.002036      0.000000      0.000000
    63  Cl    s      -0.002423     -0.000798     -0.001364      0.000000

  Comparison of initial and final region 1 :

  Parameter   Initial value   Final value   Difference    Units      Percent
      1 x          2.235594      2.235594     0.000000    Cartesian    0.00
      1 y          2.235594      2.235594     0.000000    Cartesian    0.00
      1 z         -2.235594     -2.303497    -0.067903    Cartesian    3.04
      2 x          4.471189      4.573017     0.101828    Cartesian    2.28
      2 y          4.471189      4.573017     0.101828    Cartesian    2.28
      2 z          0.000000      0.000000     0.000000    Cartesian    0.00
      3 x          4.471189      4.372861    -0.098327    Cartesian   -2.20
      3 y          2.235594      2.235594     0.000000    Cartesian    0.00
      3 z         -2.235594     -1.799969     0.435626    Cartesian  -19.49
      4 x          2.235594      2.235594     0.000000    Cartesian    0.00
      4 y          2.235594      2.235594     0.000000    Cartesian    0.00
      4 z          4.471189      4.453782    -0.017406    Cartesian   -0.39
      5 x          2.235594      2.235594     0.000000    Cartesian    0.00
      5 y          6.706783      7.096498     0.389715    Cartesian    5.81
      5 z          0.000000      0.000000     0.000000    Cartesian    0.00
      6 x          2.235594      2.235594     0.000000    Cartesian    0.00
      6 y          6.706783      6.681006    -0.025777    Cartesian   -0.38
      6 z         -2.235594     -2.215446     0.020149    Cartesian   -0.90
      7 x          4.471189      4.563016     0.091827    Cartesian    2.05
      7 y          4.471189      4.563016     0.091827    Cartesian    2.05
      7 z          4.471189      4.575475     0.104287    Cartesian    2.33
      8 x          4.471189      4.462275    -0.008914    Cartesian   -0.20
      8 y          6.706783      6.666085    -0.040698    Cartesian   -0.61
      8 z         -2.235594     -2.172071     0.063524    Cartesian   -2.84
      9 x          2.235594      2.235594     0.000000    Cartesian    0.00
      9 y          6.706783      6.277025    -0.429758    Cartesian   -6.41
      9 z          4.471189      4.431492    -0.039697    Cartesian   -0.89
     10 x          6.706783      6.775578     0.068795    Cartesian    1.03
     10 y          6.706783      6.775578     0.068795    Cartesian    1.03
     10 z          0.000000      0.000000     0.000000    Cartesian    0.00
     11 x          2.235594      2.235594     0.000000    Cartesian    0.00
     11 y          2.235594      2.235594     0.000000    Cartesian    0.00
     11 z          6.706783      6.763122     0.056339    Cartesian    0.84
     12 x          6.706783      6.709835     0.003052    Cartesian    0.05
     12 y          6.706783      6.709835     0.003052    Cartesian    0.05
     12 z         -2.235594     -2.242793    -0.007199    Cartesian    0.32
     13 x          4.471189      4.504490     0.033301    Cartesian    0.74
     13 y          8.942377      8.955318     0.012941    Cartesian    0.14
     13 z          0.000000      0.000000     0.000000    Cartesian    0.00
     14 x          4.471189      4.459450    -0.011739    Cartesian   -0.26
     14 y          2.235594      2.235594     0.000000    Cartesian    0.00
     14 z          6.706783      6.871838     0.165055    Cartesian    2.46
     15 x          8.942377      8.903701    -0.038677    Cartesian   -0.43
     15 y          2.235594      2.235594     0.000000    Cartesian    0.00
     15 z         -2.235594     -2.638075    -0.402481    Cartesian   18.00
     16 x          6.706783      6.636542    -0.070241    Cartesian   -1.05
     16 y          6.706783      6.636542    -0.070241    Cartesian   -1.05
     16 z          4.471189      4.471020    -0.000169    Cartesian   -0.00
     17 x          2.235594      2.235594     0.000000    Cartesian    0.00
     17 y          6.706783      6.692569    -0.014214    Cartesian   -0.21
     17 z          6.706783      6.682330    -0.024453    Cartesian   -0.36
     18 x          4.471189      4.505522     0.034333    Cartesian    0.77
     18 y          8.942377      8.990111     0.047734    Cartesian    0.53
     18 z          4.471189      4.485057     0.013868    Cartesian    0.31
     19 x          4.471189      4.467168    -0.004021    Cartesian   -0.09
     19 y          6.706783      6.691319    -0.015464    Cartesian   -0.23
     19 z          6.706783      6.674502    -0.032281    Cartesian   -0.48
     20 x          8.942377      8.936187    -0.006190    Cartesian   -0.07
     20 y          6.706783      6.692507    -0.014276    Cartesian   -0.21
     20 z         -2.235594     -2.304941    -0.069346    Cartesian    3.10
     21 x          2.235594      2.235594     0.000000    Cartesian    0.00
     21 y          2.235594      2.235594     0.000000    Cartesian    0.00
     21 z          8.942377      8.994410     0.052032    Cartesian    0.58
     22 x          2.235594      2.235594     0.000000    Cartesian    0.00
     22 y         11.177972     10.814119    -0.363853    Cartesian   -3.26
     22 z          0.000000      0.000000     0.000000    Cartesian    0.00
     23 x          2.235594      2.235594     0.000000    Cartesian    0.00
     23 y         11.177972     11.139662    -0.038310    Cartesian   -0.34
     23 z         -2.235594     -2.235785    -0.000191    Cartesian    0.01
     24 x          6.706783      6.715952     0.009169    Cartesian    0.14
     24 y          6.706783      6.715952     0.009169    Cartesian    0.14
     24 z          6.706783      6.710708     0.003925    Cartesian    0.06
     25 x          4.471189      4.449295    -0.021894    Cartesian   -0.49
     25 y          4.471189      4.449295    -0.021894    Cartesian   -0.49
     25 z          8.942377      8.949833     0.007456    Cartesian    0.08
     26 x          8.942377      8.952410     0.010033    Cartesian    0.11
     26 y          8.942377      8.952410     0.010033    Cartesian    0.11
     26 z          0.000000      0.000000     0.000000    Cartesian    0.00
     27 x          4.471189      4.466780    -0.004408    Cartesian   -0.10
     27 y         11.177972     11.146793    -0.031178    Cartesian   -0.28
     27 z         -2.235594     -2.183326     0.052268    Cartesian   -2.34
     28 x          8.942377      8.927103    -0.015274    Cartesian   -0.17
     28 y          2.235594      2.235594     0.000000    Cartesian    0.00
     28 z          6.706783      6.472676    -0.234107    Cartesian   -3.49
     29 x          2.235594      2.235594     0.000000    Cartesian    0.00
     29 y          6.706783      6.832590     0.125807    Cartesian    1.88
     29 z          8.942377      8.923410    -0.018967    Cartesian   -0.21
     30 x          2.235594      2.235594     0.000000    Cartesian    0.00
     30 y         11.177972     11.410602     0.232631    Cartesian    2.08
     30 z          4.471189      4.451431    -0.019758    Cartesian   -0.44
     31 x          6.706783      6.778555     0.071772    Cartesian    1.07
     31 y         11.177972     11.120746    -0.057226    Cartesian   -0.51
     31 z          0.000000      0.000000     0.000000    Cartesian    0.00
     32 x          6.706783      6.705875    -0.000908    Cartesian   -0.01
     32 y         11.177972     11.178698     0.000726    Cartesian    0.01
     32 z         -2.235594     -2.234154     0.001440    Cartesian   -0.06
     33 x          8.942377      8.966594     0.024217    Cartesian    0.27
     33 y          8.942377      8.966594     0.024217    Cartesian    0.27
     33 z          4.471189      4.466034    -0.005155    Cartesian   -0.12
     34 x          8.942377      8.939885    -0.002493    Cartesian   -0.03
     34 y          6.706783      6.722110     0.015327    Cartesian    0.23
     34 z          6.706783      6.677827    -0.028956    Cartesian   -0.43
     35 x          6.706783      6.715842     0.009059    Cartesian    0.14
     35 y          6.706783      6.715842     0.009059    Cartesian    0.14
     35 z          8.942377      8.935726    -0.006651    Cartesian   -0.07
     36 x          6.706783      6.655897    -0.050886    Cartesian   -0.76
     36 y         11.177972     11.198549     0.020578    Cartesian    0.18
     36 z          4.471189      4.470977    -0.000211    Cartesian   -0.00
     37 x          2.235594      2.235594     0.000000    Cartesian    0.00
     37 y          2.235594      2.235594     0.000000    Cartesian    0.00
     37 z         11.177972     11.188620     0.010648    Cartesian    0.10
     38 x          2.235594      2.235594     0.000000    Cartesian    0.00
     38 y         11.177972     11.188873     0.010902    Cartesian    0.10
     38 z          6.706783      6.684051    -0.022732    Cartesian   -0.34
     39 x          4.471189      4.445188    -0.026001    Cartesian   -0.58
     39 y         13.413566     13.478169     0.064603    Cartesian    0.48
     39 z          0.000000      0.000000     0.000000    Cartesian    0.00
     40 x          4.471189      4.478492     0.007303    Cartesian    0.16
     40 y          2.235594      2.235594     0.000000    Cartesian    0.00
     40 z         11.177972     11.154059    -0.023913    Cartesian   -0.21
     41 x         13.413566     13.390549    -0.023017    Cartesian   -0.17
     41 y          2.235594      2.235594     0.000000    Cartesian    0.00
     41 z         -2.235594     -2.049965     0.185629    Cartesian   -8.30
     42 x          4.471189      4.476905     0.005716    Cartesian    0.13
     42 y          8.942377      8.954990     0.012613    Cartesian    0.14
     42 z          8.942377      8.982287     0.039910    Cartesian    0.45
     43 x          4.471189      4.465087    -0.006102    Cartesian   -0.14
     43 y         11.177972     11.127009    -0.050963    Cartesian   -0.46
     43 z          6.706783      6.718154     0.011371    Cartesian    0.17
     44 x          8.942377      8.939567    -0.002811    Cartesian   -0.03
     44 y         11.177972     11.162156    -0.015815    Cartesian   -0.14
     44 z         -2.235594     -2.263608    -0.028014    Cartesian    1.25
     45 x          2.235594      2.235594     0.000000    Cartesian    0.00
     45 y          2.235594      2.235594     0.000000    Cartesian    0.00
     45 z         -2.235594     -2.303587    -0.067993    Cartesian    3.04
     46 x          4.471189      4.569554     0.098366    Cartesian    2.20
     46 y          4.471189      4.569554     0.098366    Cartesian    2.20
     46 z          0.000000      0.000000     0.000000    Cartesian    0.00
     47 x          2.235594      2.235594     0.000000    Cartesian    0.00
     47 y          6.706783      6.681072    -0.025711    Cartesian   -0.38
     47 z         -2.235594     -2.215448     0.020146    Cartesian   -0.90
     48 x          4.471189      4.576138     0.104949    Cartesian    2.35
     48 y          4.471189      4.576138     0.104949    Cartesian    2.35
     48 z          4.471189      4.587274     0.116085    Cartesian    2.60
     49 x          2.235594      2.235594     0.000000    Cartesian    0.00
     49 y          2.235594      2.235594     0.000000    Cartesian    0.00
     49 z          6.706783      6.763280     0.056497    Cartesian    0.84
     50 x          6.706783      6.709845     0.003062    Cartesian    0.05
     50 y          6.706783      6.709845     0.003062    Cartesian    0.05
     50 z         -2.235594     -2.242805    -0.007211    Cartesian    0.32
     51 x          4.471189      4.496860     0.025672    Cartesian    0.57
     51 y          8.942377      8.957528     0.015151    Cartesian    0.17
     51 z          0.000000      0.000000     0.000000    Cartesian    0.00
     52 x          2.235594      2.235594     0.000000    Cartesian    0.00
     52 y          6.706783      6.692525    -0.014258    Cartesian   -0.21
     52 z          6.706783      6.682369    -0.024414    Cartesian   -0.36
     53 x          4.471189      4.503424     0.032235    Cartesian    0.72
     53 y          8.942377      8.995579     0.053202    Cartesian    0.59
     53 z          4.471189      4.484486     0.013297    Cartesian    0.30
     54 x          2.235594      2.235594     0.000000    Cartesian    0.00
     54 y         11.177972     11.139675    -0.038297    Cartesian   -0.34
     54 z         -2.235594     -2.235829    -0.000234    Cartesian    0.01
     55 x          6.706783      6.715962     0.009179    Cartesian    0.14
     55 y          6.706783      6.715962     0.009179    Cartesian    0.14
     55 z          6.706783      6.710703     0.003920    Cartesian    0.06
     56 x          4.471189      4.443920    -0.027269    Cartesian   -0.61
     56 y          4.471189      4.443920    -0.027269    Cartesian   -0.61
     56 z          8.942377      8.946706     0.004329    Cartesian    0.05
     57 x          8.942377      8.952830     0.010453    Cartesian    0.12
     57 y          8.942377      8.952830     0.010453    Cartesian    0.12
     57 z          0.000000      0.000000     0.000000    Cartesian    0.00
     58 x          6.706783      6.705883    -0.000900    Cartesian   -0.01
     58 y         11.177972     11.178692     0.000720    Cartesian    0.01
     58 z         -2.235594     -2.234161     0.001433    Cartesian   -0.06
     59 x          8.942377      8.969151     0.026774    Cartesian    0.30
     59 y          8.942377      8.969151     0.026774    Cartesian    0.30
     59 z          4.471189      4.464274    -0.006915    Cartesian   -0.15
     60 x          2.235594      2.235594     0.000000    Cartesian    0.00
     60 y          2.235594      2.235594     0.000000    Cartesian    0.00
     60 z         11.177972     11.188561     0.010589    Cartesian    0.09
     61 x          2.235594      2.235594     0.000000    Cartesian    0.00
     61 y         11.177972     11.188938     0.010966    Cartesian    0.10
     61 z          6.706783      6.684020    -0.022763    Cartesian   -0.34
     62 x          4.471189      4.437987    -0.033202    Cartesian   -0.74
     62 y         13.413566     13.486668     0.073102    Cartesian    0.54
     62 z          0.000000      0.000000     0.000000    Cartesian    0.00
     63 x          4.471189      4.477161     0.005973    Cartesian    0.13
     63 y          8.942377      8.955772     0.013395    Cartesian    0.15
     63 z          8.942377      8.987638     0.045261    Cartesian    0.51

  Time to end of optimisation  =       28.3502 seconds

  Timing analysis for GULP :

  Task / Subroutine                                          Time (Seconds)
  Calculation of reciprocal space energy and derivatives          0.0002
  Calculation of reciprocal space energy using symmetry           0.0003
  Calculation of real space energy and derivatives                0.0013
  Calculation of real space energy using symmetry                 0.0031
  Calculation for region 1 energy and derivatives (2-b)           7.5311
  Calculation for region 2a energy                               20.3012
  Calculation for region 2b energy                                0.0013
  Calculation and manipulation of Hessian matrix                  0.3141
  Calculation of matrix inversion                                 0.0110
  Symmetry generation of equivalent positions                     0.0017

  Dump file written as Na3OCl.grs

  Job Finished at 14:14.15  3rd January    2021