  Job Started  at 14:13.45  3rd January    2021

  Number of CPUs =     1

  Total number of configurations input =      1

*  Input for Configuration =   1                                               *

  Formula = ClONa3

  Number of irreducible atoms/shells =       5

  Total number atoms/shells =       7

  Dimensionality = 3               :  Bulk

  Symmetry :

  Crystal family                   :  Cubic
  Crystal class  (Groth - 1921)    :  Cubic Hexakisoctahedral

  Space group (centrosymmetric)    :  P M 3 M

  Patterson group                  :  P m -3 m

  Cartesian lattice vectors (Angstroms) :

        4.504000    0.000000    0.000000
        0.000000    4.504000    0.000000
        0.000000    0.000000    4.504000

  Cell parameters (Angstroms/Degrees):

  a =       4.5040    alpha =  90.0000
  b =       4.5040    beta  =  90.0000
  c =       4.5040    gamma =  90.0000

  Initial cell volume =          91.368216 Angs**3

  Temperature of configuration =   0.00     K

  Pressure of configuration =         0.000 GPa

  Fractional coordinates of asymmetric unit :

   No.  Atomic       x           y          z         Charge      Occupancy
        Label      (Frac)      (Frac)     (Frac)        (e)         (Frac)
      1 Cl    c    0.000000    0.000000    0.000000     1.48500    1.000000
      2 O     c    0.500000    0.500000    0.500000     0.18300    1.000000
      3 Na    c    0.500000    0.500000    0.000000     1.00000    1.000000
      4 Cl    s    0.000000    0.000000    0.000000    -2.48500    1.000000
      5 O     s    0.500000    0.500000    0.500000    -2.18300    1.000000

  Constraints :

  Constraint no.      Unconstrained     Constrained    Coefficient    Offset
                         Variable         Variable
           1              Strain 1        Strain 2       1.00000      0.0000
           2              Strain 1        Strain 3       1.00000      0.0000

*  General input information                                                   *

  Species output for all configurations :

  Species    Type    Atomic    Atomic    Charge       Radii (Angs)     Library
                     Number     Mass       (e)     Cova   Ionic  VDW   Symbol
    Na       Core       11      22.99   1.000000   0.970  0.000  2.300
    O        Core        8      16.00   0.183000   0.730  0.000  1.360
    O        Shell       8       0.00  -2.183000   0.730  0.000  1.360
    Cl       Core       17      35.45   1.485000   0.990  0.000  1.650
    Cl       Shell      17       0.00  -2.485000   0.990  0.000  1.650
    Mg       Core       12      24.31   0.415000   1.100  0.000  0.000
    Mg       Shell      12       0.00   1.585000   1.100  0.000  0.000
    Ca       Core       20      40.08  -1.135000   0.990  0.000  0.000
    Ca       Shell      20       0.00   3.135000   0.990  0.000  0.000
    Sr       Core       38      87.62  -1.251000   1.120  0.000  0.000
    Sr       Shell      38       0.00   3.251000   1.120  0.000  0.000
    Ba       Core       56     137.33  -7.203000   1.340  0.000  0.000
    Ba       Shell      56       0.00   9.203000   1.340  0.000  0.000

  Lattice summation method               =    Ewald          (3-D)
                                         =    Parry          (2-D)
                                         =    Saunders et al (1-D)
  Accuracy factor for lattice sums       =   12.000

  Analytic derivatives to be used

  Time limit = Infinity

  Maximum range for interatomic potentials =    100000.000000 Angstroms

  General interatomic potentials :

Atom  Types   Potential      Parameter       Value         Units   Cutoffs(Ang)
  1     2                                                            Min /  Max
O    c O    s Spring (c-s)  Spring k 2       593.71600    eV*Ang^-2 0.000  0.800
                            Spring k 4       0.0000000    eV*Ang^-4
Cl   c Cl   s Spring (c-s)  Spring k 2       29.380000    eV*Ang^-2 0.000  0.800
                            Spring k 4       0.0000000    eV*Ang^-4
Mg   c Mg   s Spring (c-s)  Spring k 2       361.60000    eV*Ang^-2 0.000  0.800
                            Spring k 4       0.0000000    eV*Ang^-4
Ca   c Ca   s Spring (c-s)  Spring k 2       110.20000    eV*Ang^-2 0.000  0.800
                            Spring k 4       0.0000000    eV*Ang^-4
Sr   c Sr   s Spring (c-s)  Spring k 2       71.700000    eV*Ang^-2 0.000  0.800
                            Spring k 4       0.0000000    eV*Ang^-4
Ba   c Ba   s Spring (c-s)  Spring k 2       495.20000    eV*Ang^-2 0.000  0.800
                            Spring k 4       0.0000000    eV*Ang^-4
Na   c Na   c Buckingham    Buckingham A     1788.1900    eV        0.000 12.000
                            Buckingham rho  0.15900000    Ang
                            Buckingham C     0.0000000    eV*Ang^6
Na   c O    s Buckingham    Buckingham A     322.01000    eV        0.000 12.000
                            Buckingham rho  0.38800000    Ang
                            Buckingham C     0.0000000    eV*Ang^6
Na   c Cl   s Buckingham    Buckingham A     1727.8700    eV        0.000 12.000
                            Buckingham rho  0.29700000    Ang
                            Buckingham C     0.0000000    eV*Ang^6
O    s O    s Buckingham    Buckingham A     22764.300    eV        0.000 12.000
                            Buckingham rho  0.14900000    Ang
                            Buckingham C     13.190000    eV*Ang^6
O    s Cl   s Buckingham    Buckingham A     8286.9100    eV        0.000 12.000
                            Buckingham rho  0.25900000    Ang
                            Buckingham C     62.200000    eV*Ang^6
Cl   s Cl   s Buckingham    Buckingham A     1227.2000    eV        0.000 12.000
                            Buckingham rho  0.32100000    Ang
                            Buckingham C     14.530000    eV*Ang^6
O    s Mg   s Buckingham    Buckingham A     1428.5000    eV        0.000 12.000
                            Buckingham rho  0.29450000    Ang
                            Buckingham C     0.0000000    eV*Ang^6
Mg   s Cl   s Buckingham    Buckingham A     4914.5400    eV        0.000 12.000
                            Buckingham rho  0.25700000    Ang
                            Buckingham C     0.0000000    eV*Ang^6
O    s Ca   s Buckingham    Buckingham A     1090.4000    eV        0.000 12.000
                            Buckingham rho  0.34370000    Ang
                            Buckingham C     0.0000000    eV*Ang^6
Cl   s Ca   s Buckingham    Buckingham A     2302.0000    eV        0.000 12.000
                            Buckingham rho  0.34020000    Ang
                            Buckingham C     0.0000000    eV*Ang^6
O    s Sr   s Buckingham    Buckingham A     959.10000    eV        0.000 12.000
                            Buckingham rho  0.37210000    Ang
                            Buckingham C     0.0000000    eV*Ang^6
Cl   s Sr   s Buckingham    Buckingham A     2191.0900    eV        0.000 12.000
                            Buckingham rho  0.34570000    Ang
                            Buckingham C     0.0000000    eV*Ang^6
O    s Ba   s Buckingham    Buckingham A     905.70000    eV        0.000 12.000
                            Buckingham rho  0.39760000    Ang
                            Buckingham C     0.0000000    eV*Ang^6
Cl   s Ba   s Buckingham    Buckingham A     2704.5500    eV        0.000 12.000
                            Buckingham rho  0.35280000    Ang
                            Buckingham C     0.0000000    eV*Ang^6

*  Output for configuration   1                                                *

  Components of energy :

  Interatomic potentials     =           6.15672400 eV
  Monopole - monopole (real) =         -10.03624526 eV
  Monopole - monopole (recip)=         -29.53581274 eV
  Monopole - monopole (total)=         -39.57205800 eV
  Total lattice energy       =         -33.41533400 eV
  Total lattice energy       =           -3224.0689 kJ/(mole unit cells)

  Number of variables =        1

  Maximum number of calculations  =          1000
  Maximum Hessian update interval =            10
  Maximum step size               =   1.000000000
  Maximum parameter tolerance     =   0.000010000
  Maximum function  tolerance     =   0.000010000
  Maximum gradient  tolerance     =   0.001000000
  Maximum gradient  component     =   0.010000000

  Symmetry constrained optimisation

  Symmetry used for second derivatives

  Cell parameters to be optimised using strains

  Newton-Raphson optimiser to be used

  BFGS hessian update to be used

  Lower half triangular hessian to be used

  Start of bulk optimisation :

  ** Hessian calculated **

  **** Optimisation achieved ****

  Final energy =     -33.42006833 eV
  Final Gnorm  =       0.00012371

  Components of energy :

  Interatomic potentials     =           6.44238503 eV
  Monopole - monopole (real) =         -10.10989518 eV
  Monopole - monopole (recip)=         -29.75255817 eV
  Monopole - monopole (total)=         -39.86245335 eV
  Total lattice energy       =         -33.42006833 eV
  Total lattice energy       =           -3224.5257 kJ/(mole unit cells)

  Final asymmetric unit coordinates :

   No.  Atomic        x           y           z         Radius
        Label       (Frac)      (Frac)      (Frac)       (Angs)
     1  Cl    c     0.000000    0.000000    0.000000    0.000000
     2  O     c     0.500000    0.500000    0.500000    0.000000
     3  Na    c     0.500000    0.500000    0.000000    0.000000
     4  Cl    s     0.000000    0.000000    0.000000    0.000000
     5  O     s     0.500000    0.500000    0.500000    0.000000

  Final Cartesian lattice vectors (Angstroms) :

        4.471189    0.000000    0.000000
        0.000000    4.471189    0.000000
        0.000000    0.000000    4.471189

  Final cell parameters and derivatives :

       a            4.471189 Angstrom     dE/de1(xx)     0.000124 eV/strain
       b            4.471189 Angstrom     dE/de2(yy)     0.000000 eV/strain
       c            4.471189 Angstrom     dE/de3(zz)     0.000000 eV/strain
       alpha       90.000000 Degrees      dE/de4(yz)     0.000000 eV/strain
       beta        90.000000 Degrees      dE/de5(xz)     0.000000 eV/strain
       gamma       90.000000 Degrees      dE/de6(xy)     0.000000 eV/strain

  Primitive cell volume =            89.385893 Angs**3

  Density of cell =      2.237101 g/cm**3

  Non-primitive cell volume =            89.385893 Angs**3

  Final internal derivatives :

   No.  Atomic          a             b             c           Radius
        Label          (eV)          (eV)          (eV)        (eV/Angs)
      1 Cl    c       0.000000      0.000000      0.000000      0.000000
      2 O     c       0.000000      0.000000      0.000000      0.000000
      3 Na    c       0.000000      0.000000      0.000000      0.000000
      4 Cl    s       0.000000      0.000000      0.000000      0.000000
      5 O     s       0.000000      0.000000      0.000000      0.000000
  Maximum abs         0.000000      0.000000      0.000000      0.000000

  Comparison of initial and final structures :

[...]
     28 z          6.706783      6.367165    -0.339618    Cartesian   -5.06
     29 x          2.235594      2.235594     0.000000    Cartesian    0.00
     29 y          6.706783      6.906686     0.199903    Cartesian    2.98
     29 z          8.942377      8.927136    -0.015242    Cartesian   -0.17
     30 x          2.235594      2.235594     0.000000    Cartesian    0.00
     30 y         11.177972     11.536004     0.358032    Cartesian    3.20
     30 z          4.471189      4.449815    -0.021374    Cartesian   -0.48
     31 x          6.706783      6.764230     0.057447    Cartesian    0.86
     31 y         11.177972     10.900527    -0.277444    Cartesian   -2.48
     31 z          0.000000      0.000000     0.000000    Cartesian    0.00
     32 x          6.706783      6.707703     0.000920    Cartesian    0.01
     32 y         11.177972     11.171362    -0.006609    Cartesian   -0.06
     32 z         -2.235594     -2.236576    -0.000982    Cartesian    0.04
     33 x          8.942377      8.970186     0.027809    Cartesian    0.31
     33 y          8.942377      8.970186     0.027809    Cartesian    0.31
     33 z          4.471189      4.465873    -0.005316    Cartesian   -0.12
     34 x          8.942377      8.947182     0.004805    Cartesian    0.05
     34 y          6.706783      6.721650     0.014867    Cartesian    0.22
     34 z          6.706783      6.488911    -0.217872    Cartesian   -3.25
     35 x          6.706783      6.835508     0.128725    Cartesian    1.92
     35 y          6.706783      6.835508     0.128725    Cartesian    1.92
     35 z          8.942377      8.911135    -0.031242    Cartesian   -0.35
     36 x          6.706783      6.654100    -0.052683    Cartesian   -0.79
     36 y         11.177972     11.421402     0.243430    Cartesian    2.18
     36 z          4.471189      4.465022    -0.006167    Cartesian   -0.14
     37 x          2.235594      2.235594     0.000000    Cartesian    0.00
     37 y          2.235594      2.235594     0.000000    Cartesian    0.00
     37 z         11.177972     11.186760     0.008788    Cartesian    0.08
     38 x          2.235594      2.235594     0.000000    Cartesian    0.00
     38 y         11.177972     11.174645    -0.003327    Cartesian   -0.03
     38 z          6.706783      6.674464    -0.032319    Cartesian   -0.48
     39 x          4.471189      4.477621     0.006433    Cartesian    0.14
     39 y         13.413566     13.480770     0.067204    Cartesian    0.50
     39 z          0.000000      0.000000     0.000000    Cartesian    0.00
     40 x          4.471189      4.490049     0.018861    Cartesian    0.42
     40 y          2.235594      2.235594     0.000000    Cartesian    0.00
     40 z         11.177972     11.139158    -0.038813    Cartesian   -0.35
     41 x         13.413566     13.400135    -0.013431    Cartesian   -0.10
     41 y          2.235594      2.235594     0.000000    Cartesian    0.00
     41 z         -2.235594     -1.960993     0.274601    Cartesian  -12.28
     42 x          4.471189      4.472954     0.001766    Cartesian    0.04
     42 y          8.942377      8.953641     0.011264    Cartesian    0.13
     42 z          8.942377      8.983950     0.041573    Cartesian    0.46
     43 x          4.471189      4.463687    -0.007501    Cartesian   -0.17
     43 y         11.177972     11.123281    -0.054691    Cartesian   -0.49
     43 z          6.706783      6.709588     0.002805    Cartesian    0.04
     44 x          8.942377      8.940499    -0.001879    Cartesian   -0.02
     44 y         11.177972     11.163262    -0.014709    Cartesian   -0.13
     44 z         -2.235594     -2.274121    -0.038527    Cartesian    1.72
     45 x          2.235594      2.235594     0.000000    Cartesian    0.00
     45 y          6.706783      6.727899     0.021116    Cartesian    0.31
     45 z         11.177972     11.170524    -0.007448    Cartesian   -0.07
     46 x          6.706783      6.704299    -0.002484    Cartesian   -0.04
     46 y         11.177972     11.184868     0.006896    Cartesian    0.06
     46 z          6.706783      6.691986    -0.014797    Cartesian   -0.22
     47 x          4.471189      4.486418     0.015229    Cartesian    0.34
     47 y         13.413566     13.423255     0.009689    Cartesian    0.07
     47 z          4.471189      4.484488     0.013300    Cartesian    0.30
     48 x          4.471189      4.481142     0.009954    Cartesian    0.22
     48 y          6.706783      6.693222    -0.013561    Cartesian   -0.20
     48 z         11.177972     11.117060    -0.060912    Cartesian   -0.54
     49 x         13.413566     13.401952    -0.011614    Cartesian   -0.09
     49 y          6.706783      6.715587     0.008804    Cartesian    0.13
     49 z         -2.235594     -2.073669     0.161926    Cartesian   -7.24
     50 x          2.235594      2.235594     0.000000    Cartesian    0.00
     50 y         11.177972     11.005721    -0.172251    Cartesian   -1.54
     50 z          8.942377      8.927518    -0.014859    Cartesian   -0.17
     51 x         11.177972     11.149645    -0.028326    Cartesian   -0.25
     51 y         11.177972     11.149645    -0.028326    Cartesian   -0.25
     51 z          0.000000      0.000000     0.000000    Cartesian    0.00
     52 x          6.706783      6.720767     0.013984    Cartesian    0.21
     52 y          6.706783      6.720767     0.013984    Cartesian    0.21
     52 z         11.177972     11.170019    -0.007953    Cartesian   -0.07
     53 x         11.177972     11.180464     0.002492    Cartesian    0.02
     53 y         11.177972     11.180464     0.002492    Cartesian    0.02
     53 z         -2.235594     -2.234938     0.000656    Cartesian   -0.03
     54 x          8.942377      8.921983    -0.020395    Cartesian   -0.23
     54 y         13.413566     13.471684     0.058118    Cartesian    0.43
     54 z          0.000000      0.000000     0.000000    Cartesian    0.00
     55 x          8.942377      8.943281     0.000904    Cartesian    0.01
     55 y          2.235594      2.235594     0.000000    Cartesian    0.00
     55 z         11.177972     11.259721     0.081750    Cartesian    0.73
     56 x         13.413566     13.403672    -0.009894    Cartesian   -0.07
     56 y          2.235594      2.235594     0.000000    Cartesian    0.00
     56 z          6.706783      6.852306     0.145523    Cartesian    2.17
     57 x          8.942377      8.957247     0.014870    Cartesian    0.17
     57 y          8.942377      8.957247     0.014870    Cartesian    0.17
     57 z          8.942377      8.975424     0.033047    Cartesian    0.37
     58 x          8.942377      8.939004    -0.003373    Cartesian   -0.04
     58 y         11.177972     11.183432     0.005460    Cartesian    0.05
     58 z          6.706783      6.689167    -0.017616    Cartesian   -0.26
     59 x          2.235594      2.235594     0.000000    Cartesian    0.00
     59 y        -11.177972    -11.327879    -0.149908    Cartesian    1.34
     59 z          0.000000      0.000000     0.000000    Cartesian    0.00
     60 x          2.235594      2.235594     0.000000    Cartesian    0.00
     60 y          2.235594      2.235594     0.000000    Cartesian    0.00
     60 z         13.413566     13.403320    -0.010246    Cartesian   -0.08
     61 x          6.706783      6.710671     0.003888    Cartesian    0.06
     61 y         11.177972     11.072350    -0.105622    Cartesian   -0.94
     61 z          8.942377      8.932777    -0.009600    Cartesian   -0.11
     62 x         11.177972     11.187941     0.009970    Cartesian    0.09
     62 y         11.177972     11.187941     0.009970    Cartesian    0.09
     62 z          4.471189      4.473328     0.002139    Cartesian    0.05
     63 x          2.235594      2.235594     0.000000    Cartesian    0.00
     63 y        -11.177972    -11.182394    -0.004423    Cartesian    0.04
     63 z         -2.235594     -2.220399     0.015196    Cartesian   -0.68
     64 x          4.471189      4.471396     0.000207    Cartesian    0.00
     64 y        -11.177972    -11.135123     0.042849    Cartesian   -0.38
     64 z         -2.235594     -2.258984    -0.023390    Cartesian    1.05
     65 x          8.942377      8.972927     0.030550    Cartesian    0.34
     65 y         13.413566     13.411228    -0.002338    Cartesian   -0.02
     65 z          4.471189      4.475422     0.004233    Cartesian    0.09
     66 x          8.942377      8.942175    -0.000202    Cartesian   -0.00
     66 y          6.706783      6.692272    -0.014511    Cartesian   -0.22
     66 z         11.177972     11.209308     0.031337    Cartesian    0.28
     67 x         13.413566     13.411408    -0.002158    Cartesian   -0.02
     67 y          6.706783      6.681926    -0.024857    Cartesian   -0.37
     67 z          6.706783      6.804174     0.097391    Cartesian    1.45
     68 x          4.471189      4.485862     0.014674    Cartesian    0.33
     68 y          4.471189      4.485862     0.014674    Cartesian    0.33
     68 z         13.413566     13.436895     0.023329    Cartesian    0.17
     69 x          2.235594      2.235594     0.000000    Cartesian    0.00
     69 y          2.235594      2.235594     0.000000    Cartesian    0.00
     69 z         -2.235594     -2.305348    -0.069754    Cartesian    3.12
     70 x          4.471189      4.574214     0.103025    Cartesian    2.30
     70 y          4.471189      4.574214     0.103025    Cartesian    2.30
     70 z          0.000000      0.000000     0.000000    Cartesian    0.00
     71 x          2.235594      2.235594     0.000000    Cartesian    0.00
     71 y          6.706783      6.691940    -0.014843    Cartesian   -0.22
     71 z         -2.235594     -2.201497     0.034098    Cartesian   -1.53
     72 x          4.471189      4.527776     0.056587    Cartesian    1.27
     72 y          4.471189      4.527776     0.056587    Cartesian    1.27
     72 z          4.471189      4.642966     0.171777    Cartesian    3.84
     73 x          2.235594      2.235594     0.000000    Cartesian    0.00
     73 y          2.235594      2.235594     0.000000    Cartesian    0.00
     73 z          6.706783      6.787036     0.080253    Cartesian    1.20
     74 x          6.706783      6.715862     0.009080    Cartesian    0.14
     74 y          6.706783      6.715862     0.009080    Cartesian    0.14
     74 z         -2.235594     -2.260398    -0.024804    Cartesian    1.11
     75 x          4.471189      4.477052     0.005864    Cartesian    0.13
     75 y          8.942377      8.946042     0.003665    Cartesian    0.04
     75 z          0.000000      0.000000     0.000000    Cartesian    0.00
     76 x          2.235594      2.235594     0.000000    Cartesian    0.00
     76 y          6.706783      6.709348     0.002565    Cartesian    0.04
     76 z          6.706783      6.693307    -0.013476    Cartesian   -0.20
     77 x          4.471189      4.509522     0.038333    Cartesian    0.86
     77 y          8.942377      8.976591     0.034213    Cartesian    0.38
     77 z          4.471189      4.469619    -0.001570    Cartesian   -0.04
     78 x          2.235594      2.235594     0.000000    Cartesian    0.00
     78 y         11.177972     11.155870    -0.022102    Cartesian   -0.20
     78 z         -2.235594     -2.230055     0.005539    Cartesian   -0.25
     79 x          6.706783      6.718560     0.011777    Cartesian    0.18
     79 y          6.706783      6.718560     0.011777    Cartesian    0.18
     79 z          6.706783      6.684355    -0.022428    Cartesian   -0.33
     80 x          4.471189      4.460865    -0.010324    Cartesian   -0.23
     80 y          4.471189      4.460865    -0.010324    Cartesian   -0.23
     80 z          8.942377      8.969813     0.027436    Cartesian    0.31
     81 x          8.942377      8.996265     0.053887    Cartesian    0.60
     81 y          8.942377      8.996265     0.053887    Cartesian    0.60
     81 z          0.000000      0.000000     0.000000    Cartesian    0.00
     82 x          6.706783      6.707710     0.000927    Cartesian    0.01
     82 y         11.177972     11.171370    -0.006601    Cartesian   -0.06
     82 z         -2.235594     -2.236606    -0.001012    Cartesian    0.05
     83 x          8.942377      8.967227     0.024849    Cartesian    0.28
     83 y          8.942377      8.967227     0.024849    Cartesian    0.28
     83 z          4.471189      4.462672    -0.008517    Cartesian   -0.19
     84 x          2.235594      2.235594     0.000000    Cartesian    0.00
     84 y          2.235594      2.235594     0.000000    Cartesian    0.00
     84 z         11.177972     11.186701     0.008729    Cartesian    0.08
     85 x          2.235594      2.235594     0.000000    Cartesian    0.00
     85 y         11.177972     11.174695    -0.003276    Cartesian   -0.03
     85 z          6.706783      6.674457    -0.032326    Cartesian   -0.48
     86 x          4.471189      4.475245     0.004056    Cartesian    0.09
     86 y         13.413566     13.489895     0.076329    Cartesian    0.57
     86 z          0.000000      0.000000     0.000000    Cartesian    0.00
     87 x          4.471189      4.469979    -0.001209    Cartesian   -0.03
     87 y          8.942377      8.955122     0.012744    Cartesian    0.14
     87 z          8.942377      8.989877     0.047500    Cartesian    0.53
     88 x          2.235594      2.235594     0.000000    Cartesian    0.00
     88 y          6.706783      6.727936     0.021153    Cartesian    0.32
     88 z         11.177972     11.170525    -0.007447    Cartesian   -0.07
     89 x          6.706783      6.704298    -0.002485    Cartesian   -0.04
     89 y         11.177972     11.184898     0.006926    Cartesian    0.06
     89 z          6.706783      6.691972    -0.014811    Cartesian   -0.22
     90 x          4.471189      4.487616     0.016427    Cartesian    0.37
     90 y         13.413566     13.416145     0.002579    Cartesian    0.02
     90 z          4.471189      4.486412     0.015224    Cartesian    0.34
     91 x          6.706783      6.720793     0.014010    Cartesian    0.21
     91 y          6.706783      6.720793     0.014010    Cartesian    0.21
     91 z         11.177972     11.170036    -0.007935    Cartesian   -0.07
     92 x         11.177972     11.180463     0.002492    Cartesian    0.02
     92 y         11.177972     11.180463     0.002492    Cartesian    0.02
     92 z         -2.235594     -2.234949     0.000645    Cartesian   -0.03
     93 x          8.942377      8.916416    -0.025962    Cartesian   -0.29
     93 y         13.413566     13.479401     0.065835    Cartesian    0.49
     93 z          0.000000      0.000000     0.000000    Cartesian    0.00
     94 x          8.942377      8.956308     0.013930    Cartesian    0.16
     94 y          8.942377      8.956308     0.013930    Cartesian    0.16
     94 z          8.942377      8.980833     0.038455    Cartesian    0.43
     95 x          2.235594      2.235594     0.000000    Cartesian    0.00
     95 y        -11.177972    -11.182443    -0.004472    Cartesian    0.04
     95 z         -2.235594     -2.220347     0.015248    Cartesian   -0.68
     96 x          8.942377      8.975324     0.032947    Cartesian    0.37
     96 y         13.413566     13.408239    -0.005327    Cartesian   -0.04
     96 z          4.471189      4.475998     0.004810    Cartesian    0.11
     97 x          4.471189      4.486994     0.015805    Cartesian    0.35
     97 y          4.471189      4.486994     0.015805    Cartesian    0.35
     97 z         13.413566     13.440571     0.027005    Cartesian    0.20

  Time to end of optimisation  =       62.0367 seconds

  Timing analysis for GULP :

  Task / Subroutine                                          Time (Seconds)
  Calculation of reciprocal space energy and derivatives          0.0004
  Calculation of reciprocal space energy using symmetry           0.0005
  Calculation of real space energy and derivatives                0.0021
  Calculation of real space energy using symmetry                 0.0048
  Calculation for region 1 energy and derivatives (2-b)          26.1431
  Calculation for region 2a energy                               35.0244
  Calculation for region 2b energy                                0.0003
  Calculation and manipulation of Hessian matrix                  0.6092
  Calculation of matrix inversion                                 0.0350
  Symmetry generation of equivalent positions                     0.0026

  Dump file written as Na3OCl.grs

  Job Finished at 14:14.48  3rd January    2021