  Job Started  at 17:04.24  4th February   2021

  Number of CPUs =     1

  Total number of configurations input =      1

*  Input for Configuration =   1                                               *

  Formula = ClONa3

  Number of irreducible atoms/shells =       5

  Total number atoms/shells =       7

  Dimensionality = 3               :  Bulk

  Symmetry :

  Crystal family                   :  Cubic
  Crystal class  (Groth - 1921)    :  Cubic Hexakisoctahedral

  Space group (centrosymmetric)    :  P M 3 M

  Patterson group                  :  P m -3 m

  Cartesian lattice vectors (Angstroms) :

        4.504000    0.000000    0.000000
        0.000000    4.504000    0.000000
        0.000000    0.000000    4.504000

  Cell parameters (Angstroms/Degrees):

  a =       4.5040    alpha =  90.0000
  b =       4.5040    beta  =  90.0000
  c =       4.5040    gamma =  90.0000

  Initial cell volume =          91.368216 Angs**3

  Temperature of configuration =   0.00     K

  Pressure of configuration =         0.000 GPa

  Fractional coordinates of asymmetric unit :

   No.  Atomic       x           y          z         Charge      Occupancy
        Label      (Frac)      (Frac)     (Frac)        (e)         (Frac)
      1 Cl    c    0.000000    0.000000    0.000000     1.48500    1.000000
      2 O     c    0.500000    0.500000    0.500000     0.18300    1.000000
      3 Na    c    0.500000    0.500000    0.000000     1.00000    1.000000
      4 Cl    s    0.000000    0.000000    0.000000    -2.48500    1.000000
      5 O     s    0.500000    0.500000    0.500000    -2.18300    1.000000

  Constraints :

  Constraint no.      Unconstrained     Constrained    Coefficient    Offset
                         Variable         Variable
           1              Strain 1        Strain 2       1.00000      0.0000
           2              Strain 1        Strain 3       1.00000      0.0000

*  General input information                                                   *

  Species output for all configurations :

  Species    Type    Atomic    Atomic    Charge       Radii (Angs)     Library
                     Number     Mass       (e)     Cova   Ionic  VDW   Symbol
    Na       Core       11      22.99   1.000000   0.970  0.000  2.300
    O        Core        8      16.00   0.183000   0.730  0.000  1.360
    O        Shell       8       0.00  -2.183000   0.730  0.000  1.360
    Cl       Core       17      35.45   1.485000   0.990  0.000  1.650
    Cl       Shell      17       0.00  -2.485000   0.990  0.000  1.650
    Mg       Core       12      24.31   0.415000   1.100  0.000  0.000
    Mg       Shell      12       0.00   1.585000   1.100  0.000  0.000
    Ca       Core       20      40.08  -1.135000   0.990  0.000  0.000
    Ca       Shell      20       0.00   3.135000   0.990  0.000  0.000
    Sr       Core       38      87.62  -1.251000   1.120  0.000  0.000
    Sr       Shell      38       0.00   3.251000   1.120  0.000  0.000
    Ba       Core       56     137.33  -7.203000   1.340  0.000  0.000
    Ba       Shell      56       0.00   9.203000   1.340  0.000  0.000

  Lattice summation method               =    Ewald          (3-D)
                                         =    Parry          (2-D)
                                         =    Saunders et al (1-D)
  Accuracy factor for lattice sums       =   12.000

  Analytic derivatives to be used

  Time limit = Infinity

  Maximum range for interatomic potentials =    100000.000000 Angstroms

  General interatomic potentials :

Atom  Types   Potential      Parameter       Value         Units   Cutoffs(Ang)
  1     2                                                            Min /  Max
O    c O    s Spring (c-s)  Spring k 2       593.71600    eV*Ang^-2 0.000  0.800
                            Spring k 4       0.0000000    eV*Ang^-4
Cl   c Cl   s Spring (c-s)  Spring k 2       29.380000    eV*Ang^-2 0.000  0.800
                            Spring k 4       0.0000000    eV*Ang^-4
Mg   c Mg   s Spring (c-s)  Spring k 2       361.60000    eV*Ang^-2 0.000  0.800
                            Spring k 4       0.0000000    eV*Ang^-4
Ca   c Ca   s Spring (c-s)  Spring k 2       110.20000    eV*Ang^-2 0.000  0.800
                            Spring k 4       0.0000000    eV*Ang^-4
Sr   c Sr   s Spring (c-s)  Spring k 2       71.700000    eV*Ang^-2 0.000  0.800
                            Spring k 4       0.0000000    eV*Ang^-4
Ba   c Ba   s Spring (c-s)  Spring k 2       495.20000    eV*Ang^-2 0.000  0.800
                            Spring k 4       0.0000000    eV*Ang^-4
Na   c Na   c Buckingham    Buckingham A     1788.1900    eV        0.000 12.000
                            Buckingham rho  0.15900000    Ang
                            Buckingham C     0.0000000    eV*Ang^6
Na   c O    s Buckingham    Buckingham A     588.38000    eV        0.000 12.000
                            Buckingham rho  0.33800000    Ang
                            Buckingham C     0.0000000    eV*Ang^6
Na   c Cl   s Buckingham    Buckingham A     1170.4100    eV        0.000 12.000
                            Buckingham rho  0.31500000    Ang
                            Buckingham C     0.0000000    eV*Ang^6
O    s O    s Buckingham    Buckingham A     22764.300    eV        0.000 12.000
                            Buckingham rho  0.14900000    Ang
                            Buckingham C     13.190000    eV*Ang^6
O    s Cl   s Buckingham    Buckingham A     8286.9100    eV        0.000 12.000
                            Buckingham rho  0.25900000    Ang
                            Buckingham C     62.200000    eV*Ang^6
Cl   s Cl   s Buckingham    Buckingham A     1227.2000    eV        0.000 12.000
                            Buckingham rho  0.32100000    Ang
                            Buckingham C     14.530000    eV*Ang^6
O    s Mg   s Buckingham    Buckingham A     1428.5000    eV        0.000 12.000
                            Buckingham rho  0.29450000    Ang
                            Buckingham C     0.0000000    eV*Ang^6
Mg   s Cl   s Buckingham    Buckingham A     4914.5400    eV        0.000 12.000
                            Buckingham rho  0.25700000    Ang
                            Buckingham C     0.0000000    eV*Ang^6
O    s Ca   s Buckingham    Buckingham A     1090.4000    eV        0.000 12.000
                            Buckingham rho  0.34370000    Ang
                            Buckingham C     0.0000000    eV*Ang^6
Cl   s Ca   s Buckingham    Buckingham A     2302.0000    eV        0.000 12.000
                            Buckingham rho  0.34020000    Ang
                            Buckingham C     0.0000000    eV*Ang^6
O    s Sr   s Buckingham    Buckingham A     959.10000    eV        0.000 12.000
                            Buckingham rho  0.37210000    Ang
                            Buckingham C     0.0000000    eV*Ang^6
Cl   s Sr   s Buckingham    Buckingham A     2191.0900    eV        0.000 12.000
                            Buckingham rho  0.34570000    Ang
                            Buckingham C     0.0000000    eV*Ang^6
O    s Ba   s Buckingham    Buckingham A     905.70000    eV        0.000 12.000
                            Buckingham rho  0.39760000    Ang
                            Buckingham C     0.0000000    eV*Ang^6
Cl   s Ba   s Buckingham    Buckingham A     2704.5500    eV        0.000 12.000
                            Buckingham rho  0.35280000    Ang
                            Buckingham C     0.0000000    eV*Ang^6

*  Output for configuration   1                                                *

  Components of energy :

  Interatomic potentials     =           4.94315381 eV
  Monopole - monopole (real) =         -10.03624526 eV
  Monopole - monopole (recip)=         -29.53581274 eV
  Monopole - monopole (total)=         -39.57205800 eV
  Total lattice energy       =         -34.62890419 eV
  Total lattice energy       =           -3341.1599 kJ/(mole unit cells)

  Number of variables =        1

  Maximum number of calculations  =          1000
  Maximum Hessian update interval =            10
  Maximum step size               =   1.000000000
  Maximum parameter tolerance     =   0.000010000
  Maximum function  tolerance     =   0.000010000
  Maximum gradient  tolerance     =   0.001000000
  Maximum gradient  component     =   0.010000000

  Symmetry constrained optimisation

  Symmetry used for second derivatives

  Cell parameters to be optimised using strains

  Newton-Raphson optimiser to be used

  BFGS hessian update to be used

  Lower half triangular hessian to be used

  Start of bulk optimisation :

  ** Hessian calculated **

  **** Optimisation achieved ****

  Final energy =     -34.67767136 eV
  Final Gnorm  =       0.00000010

  Components of energy :

  Interatomic potentials     =           5.77546103 eV
  Monopole - monopole (real) =         -10.25970290 eV
  Monopole - monopole (recip)=         -30.19342950 eV
  Monopole - monopole (total)=         -40.45313239 eV
  Total lattice energy       =         -34.67767136 eV
  Total lattice energy       =           -3345.8652 kJ/(mole unit cells)

  Final asymmetric unit coordinates :

   No.  Atomic        x           y           z         Radius
        Label       (Frac)      (Frac)      (Frac)       (Angs)
     1  Cl    c     0.000000    0.000000    0.000000    0.000000
     2  O     c     0.500000    0.500000    0.500000    0.000000
     3  Na    c     0.500000    0.500000    0.000000    0.000000
     4  Cl    s     0.000000    0.000000    0.000000    0.000000
     5  O     s     0.500000    0.500000    0.500000    0.000000

  Final Cartesian lattice vectors (Angstroms) :

        4.405902    0.000000    0.000000
        0.000000    4.405902    0.000000
        0.000000    0.000000    4.405902

  Final cell parameters and derivatives :

       a            4.405902 Angstrom     dE/de1(xx)     0.000000 eV/strain
       b            4.405902 Angstrom     dE/de2(yy)     0.000000 eV/strain
       c            4.405902 Angstrom     dE/de3(zz)     0.000000 eV/strain
       alpha       90.000000 Degrees      dE/de4(yz)     0.000000 eV/strain
       beta        90.000000 Degrees      dE/de5(xz)     0.000000 eV/strain
       gamma       90.000000 Degrees      dE/de6(xy)     0.000000 eV/strain

  Primitive cell volume =            85.527266 Angs**3

  Density of cell =      2.338030 g/cm**3

  Non-primitive cell volume =            85.527266 Angs**3

  Final internal derivatives :

   No.  Atomic          a             b             c           Radius
        Label          (eV)          (eV)          (eV)        (eV/Angs)
      1 Cl    c       0.000000      0.000000      0.000000      0.000000
      2 O     c       0.000000      0.000000      0.000000      0.000000
      3 Na    c       0.000000      0.000000      0.000000      0.000000
      4 Cl    s       0.000000      0.000000      0.000000      0.000000
      5 O     s       0.000000      0.000000      0.000000      0.000000
  Maximum abs         0.000000      0.000000      0.000000      0.000000

  Comparison of initial and final structures :

[...]
     72 z          0.000000      0.000000     0.000000    Cartesian    0.00
     73 x          6.608853      6.609556     0.000703    Cartesian    0.01
     73 y         15.420658     15.420849     0.000191    Cartesian    0.00
     73 z         -2.202951     -2.202754     0.000197    Cartesian   -0.01
     74 x          2.202951      2.202951     0.000000    Cartesian    0.00
     74 y         11.014756     11.019205     0.004449    Cartesian    0.04
     74 z         11.014756     11.016210     0.001455    Cartesian    0.01
     75 x         11.014756     11.015587     0.000832    Cartesian    0.01
     75 y         11.014756     11.015587     0.000832    Cartesian    0.01
     75 z          6.608853      6.608658    -0.000195    Cartesian   -0.00
     76 x          4.405902      4.405539    -0.000363    Cartesian   -0.01
     76 y         13.217707     13.211211    -0.006496    Cartesian   -0.05
     76 z          8.811805      8.808387    -0.003418    Cartesian   -0.04
     77 x          4.405902      4.406361     0.000458    Cartesian    0.01
     77 y         11.014756     11.016762     0.002007    Cartesian    0.02
     77 z         11.014756     11.020360     0.005604    Cartesian    0.05
     78 x         13.217707     13.220638     0.002931    Cartesian    0.02
     78 y         11.014756     11.019131     0.004376    Cartesian    0.04
     78 z         -2.202951     -2.200425     0.002526    Cartesian   -0.11
     79 x          6.608853      6.607578    -0.001275    Cartesian   -0.02
     79 y         15.420658     15.427098     0.006440    Cartesian    0.04
     79 z          4.405902      4.406335     0.000432    Cartesian    0.01
     80 x          6.608853      6.613135     0.004282    Cartesian    0.06
     80 y          6.608853      6.613135     0.004282    Cartesian    0.06
     80 z         13.217707     13.219982     0.002275    Cartesian    0.02
     81 x          6.608853      6.608628    -0.000225    Cartesian   -0.00
     81 y         11.014756     11.013114    -0.001641    Cartesian   -0.01
     81 z         11.014756     11.013464    -0.001292    Cartesian   -0.01
     82 x          2.202951      2.202951     0.000000    Cartesian    0.00
     82 y         15.420658     15.421773     0.001115    Cartesian    0.01
     82 z          6.608853      6.606055    -0.002799    Cartesian   -0.04
     83 x          4.405902      4.404975    -0.000927    Cartesian   -0.02
     83 y          8.811805      8.807444    -0.004360    Cartesian   -0.05
     83 z         13.217707     13.207248    -0.010459    Cartesian   -0.08
     84 x          4.405902      4.406099     0.000197    Cartesian    0.00
     84 y         15.420658     15.425412     0.004754    Cartesian    0.03
     84 z          6.608853      6.614782     0.005929    Cartesian    0.09
     85 x          8.811805      8.813711     0.001906    Cartesian    0.02
     85 y         15.420658     15.428952     0.008294    Cartesian    0.05
     85 z         -2.202951     -2.205467    -0.002516    Cartesian    0.11
     86 x         11.014756     11.017842     0.003086    Cartesian    0.03
     86 y         11.014756     11.017842     0.003086    Cartesian    0.03
     86 z          8.811805      8.813619     0.001815    Cartesian    0.02
     87 x          2.202951      2.202951     0.000000    Cartesian    0.00
     87 y          2.202951      2.202951     0.000000    Cartesian    0.00
     87 z         15.420658     15.420851     0.000193    Cartesian    0.00
     88 x          6.608853      6.607279    -0.001574    Cartesian   -0.02
     88 y         15.420658     15.417331    -0.003327    Cartesian   -0.02
     88 z          6.608853      6.607493    -0.001361    Cartesian   -0.02
     89 x          4.405902      4.404181    -0.001721    Cartesian   -0.04
     89 y         17.623609     17.610569    -0.013040    Cartesian   -0.07
     89 z          0.000000      0.000000     0.000000    Cartesian    0.00
     90 x          8.811805      8.807048    -0.004757    Cartesian   -0.05
     90 y         13.217707     13.208076    -0.009631    Cartesian   -0.07
     90 z          8.811805      8.805736    -0.006068    Cartesian   -0.07
     91 x         13.217707     13.209564    -0.008143    Cartesian   -0.06
     91 y         13.217707     13.209564    -0.008143    Cartesian   -0.06
     91 z          0.000000      0.000000     0.000000    Cartesian    0.00
     92 x          4.405902      4.406886     0.000984    Cartesian    0.02
     92 y          2.202951      2.202951     0.000000    Cartesian    0.00
     92 z         15.420658     15.431164     0.010506    Cartesian    0.07
     93 x         13.217707     13.223239     0.005532    Cartesian    0.04
     93 y          2.202951      2.202951     0.000000    Cartesian    0.00
     93 z         11.014756     11.035663     0.020907    Cartesian    0.19
     94 x         17.623609     17.627446     0.003837    Cartesian    0.02
     94 y          2.202951      2.202951     0.000000    Cartesian    0.00
     94 z         -2.202951     -2.193370     0.009581    Cartesian   -0.43
     95 x          8.811805      8.813057     0.001252    Cartesian    0.01
     95 y         11.014756     11.020762     0.006006    Cartesian    0.05
     95 z         11.014756     11.022797     0.008041    Cartesian    0.07
     96 x         13.217707     13.220453     0.002746    Cartesian    0.02
     96 y         11.014756     11.021412     0.006657    Cartesian    0.06
     96 z          6.608853      6.612876     0.004022    Cartesian    0.06
     97 x          2.202951      2.202951     0.000000    Cartesian    0.00
     97 y         11.014756     11.015521     0.000765    Cartesian    0.01
     97 z         13.217707     13.221049     0.003342    Cartesian    0.03
     98 x          2.202951      2.202951     0.000000    Cartesian    0.00
     98 y         15.420658     15.423200     0.002541    Cartesian    0.02
     98 z          8.811805      8.812615     0.000811    Cartesian    0.01
     99 x         11.014756     11.020661     0.005905    Cartesian    0.05
     99 y         15.420658     15.432308     0.011650    Cartesian    0.08
     99 z          0.000000      0.000000     0.000000    Cartesian    0.00
    100 x          2.202951      2.202951     0.000000    Cartesian    0.00
    100 y          2.202951      2.202951     0.000000    Cartesian    0.00
    100 z          0.000000      0.000000     0.000000    Cartesian    0.00
    101 x          2.202951      2.202951     0.000000    Cartesian    0.00
    101 y          2.202951      2.202951     0.000000    Cartesian    0.00
    101 z         -2.202951     -2.094714     0.108237    Cartesian   -4.91
    102 x          4.405902      4.356413    -0.049489    Cartesian   -1.12
    102 y          4.405902      4.356413    -0.049489    Cartesian   -1.12
    102 z          0.000000      0.000000     0.000000    Cartesian    0.00
    103 x          2.202951      2.202951     0.000000    Cartesian    0.00
    103 y          6.608853      6.631176     0.022323    Cartesian    0.34
    103 z         -2.202951     -2.210930    -0.007979    Cartesian    0.36
    104 x          4.405902      4.338770    -0.067132    Cartesian   -1.52
    104 y          4.405902      4.338770    -0.067132    Cartesian   -1.52
    104 z          4.405902      4.349501    -0.056402    Cartesian   -1.28
    105 x          2.202951      2.202951     0.000000    Cartesian    0.00
    105 y          2.202951      2.202951     0.000000    Cartesian    0.00
    105 z          6.608853      6.598578    -0.010275    Cartesian   -0.16
    106 x          6.608853      6.609468     0.000615    Cartesian    0.01
    106 y          6.608853      6.609468     0.000615    Cartesian    0.01
    106 z         -2.202951     -2.201864     0.001087    Cartesian   -0.05
    107 x          4.405902      4.402060    -0.003842    Cartesian   -0.09
    107 y          8.811805      8.786779    -0.025025    Cartesian   -0.28
    107 z          0.000000      0.000000     0.000000    Cartesian    0.00
    108 x          2.202951      2.202951     0.000000    Cartesian    0.00
    108 y          6.608853      6.620831     0.011978    Cartesian    0.18
    108 z          6.608853      6.614373     0.005519    Cartesian    0.08
    109 x          4.405902      4.402893    -0.003010    Cartesian   -0.07
    109 y          8.811805      8.795754    -0.016050    Cartesian   -0.18
    109 z          4.405902      4.398857    -0.007045    Cartesian   -0.16
    110 x          6.608853      6.603743    -0.005110    Cartesian   -0.08
    110 y          6.608853      6.603743    -0.005110    Cartesian   -0.08
    110 z          6.608853      6.603961    -0.004893    Cartesian   -0.07
    111 x          2.202951      2.202951     0.000000    Cartesian    0.00
    111 y         11.014756     11.024126     0.009370    Cartesian    0.09
    111 z         -2.202951     -2.200671     0.002281    Cartesian   -0.10
    112 x          4.405902      4.404345    -0.001557    Cartesian   -0.04
    112 y          4.405902      4.404345    -0.001557    Cartesian   -0.04
    112 z          8.811805      8.788572    -0.023233    Cartesian   -0.26
    113 x          8.811805      8.797153    -0.014651    Cartesian   -0.17
    113 y          8.811805      8.797153    -0.014651    Cartesian   -0.17
    113 z          0.000000      0.000000     0.000000    Cartesian    0.00
    114 x          6.608853      6.609447     0.000593    Cartesian    0.01
    114 y         11.014756     11.016696     0.001941    Cartesian    0.02
    114 z         -2.202951     -2.203130    -0.000179    Cartesian    0.01
    115 x          8.811805      8.798632    -0.013173    Cartesian   -0.15
    115 y          8.811805      8.798632    -0.013173    Cartesian   -0.15
    115 z          4.405902      4.397722    -0.008180    Cartesian   -0.19
    116 x          2.202951      2.202951     0.000000    Cartesian    0.00
    116 y          2.202951      2.202951     0.000000    Cartesian    0.00
    116 z         11.014756     11.015144     0.000389    Cartesian    0.00
    117 x          2.202951      2.202951     0.000000    Cartesian    0.00
    117 y         11.014756     11.017304     0.002549    Cartesian    0.02
    117 z          6.608853      6.613278     0.004424    Cartesian    0.07
    118 x          4.405902      4.401954    -0.003948    Cartesian   -0.09
    118 y          8.811805      8.801778    -0.010026    Cartesian   -0.11
    118 z          8.811805      8.800720    -0.011085    Cartesian   -0.13
    119 x          4.405902      4.404804    -0.001098    Cartesian   -0.02
    119 y         13.217707     13.208427    -0.009280    Cartesian   -0.07
    119 z          0.000000      0.000000     0.000000    Cartesian    0.00
    120 x          2.202951      2.202951     0.000000    Cartesian    0.00
    120 y          6.608853      6.606024    -0.002830    Cartesian   -0.04
    120 z         11.014756     11.015291     0.000536    Cartesian    0.00
    121 x          6.608853      6.609008     0.000155    Cartesian    0.00
    121 y         11.014756     11.013751    -0.001005    Cartesian   -0.01
    121 z          6.608853      6.607507    -0.001346    Cartesian   -0.02
    122 x          4.405902      4.403422    -0.002480    Cartesian   -0.06
    122 y         13.217707     13.207319    -0.010388    Cartesian   -0.08
    122 z          4.405902      4.401905    -0.003997    Cartesian   -0.09
    123 x          6.608853      6.609318     0.000465    Cartesian    0.01
    123 y          6.608853      6.609318     0.000465    Cartesian    0.01
    123 z         11.014756     11.014511    -0.000245    Cartesian   -0.00
    124 x         11.014756     11.015287     0.000532    Cartesian    0.00
    124 y         11.014756     11.015287     0.000532    Cartesian    0.00
    124 z         -2.202951     -2.202639     0.000312    Cartesian   -0.01
    125 x          8.811805      8.801597    -0.010207    Cartesian   -0.12
    125 y          8.811805      8.801597    -0.010207    Cartesian   -0.12
    125 z          8.811805      8.800878    -0.010927    Cartesian   -0.12
    126 x          8.811805      8.806266    -0.005539    Cartesian   -0.06
    126 y         13.217707     13.208038    -0.009669    Cartesian   -0.07
    126 z          0.000000      0.000000     0.000000    Cartesian    0.00
    127 x          2.202951      2.202951     0.000000    Cartesian    0.00
    127 y         15.420658     15.422925     0.002267    Cartesian    0.01
    127 z         -2.202951     -2.206513    -0.003562    Cartesian    0.16
    128 x          8.811805      8.807782    -0.004023    Cartesian   -0.05
    128 y         13.217707     13.209151    -0.008556    Cartesian   -0.06
    128 z          4.405902      4.402176    -0.003726    Cartesian   -0.08
    129 x          4.405902      4.404617    -0.001286    Cartesian   -0.03
    129 y          4.405902      4.404617    -0.001286    Cartesian   -0.03
    129 z         13.217707     13.207102    -0.010605    Cartesian   -0.08
    130 x          6.608853      6.609556     0.000703    Cartesian    0.01
    130 y         15.420658     15.420849     0.000190    Cartesian    0.00
    130 z         -2.202951     -2.202753     0.000198    Cartesian   -0.01
    131 x          2.202951      2.202951     0.000000    Cartesian    0.00
    131 y         11.014756     11.019212     0.004457    Cartesian    0.04
    131 z         11.014756     11.016206     0.001451    Cartesian    0.01
    132 x         11.014756     11.015587     0.000831    Cartesian    0.01
    132 y         11.014756     11.015587     0.000831    Cartesian    0.01
    132 z          6.608853      6.608658    -0.000195    Cartesian   -0.00
    133 x          4.405902      4.405379    -0.000523    Cartesian   -0.01
    133 y         13.217707     13.209555    -0.008152    Cartesian   -0.06
    133 z          8.811805      8.807841    -0.003964    Cartesian   -0.04
    134 x          6.608853      6.608627    -0.000226    Cartesian   -0.00
    134 y         11.014756     11.013113    -0.001643    Cartesian   -0.01
    134 z         11.014756     11.013464    -0.001292    Cartesian   -0.01
    135 x          2.202951      2.202951     0.000000    Cartesian    0.00
    135 y         15.420658     15.421778     0.001120    Cartesian    0.01
    135 z          6.608853      6.606045    -0.002808    Cartesian   -0.04
    136 x          4.405902      4.404952    -0.000950    Cartesian   -0.02
    136 y          8.811805      8.806682    -0.005122    Cartesian   -0.06
    136 z         13.217707     13.205970    -0.011737    Cartesian   -0.09
    137 x          2.202951      2.202951     0.000000    Cartesian    0.00
    137 y          2.202951      2.202951     0.000000    Cartesian    0.00
    137 z         15.420658     15.420852     0.000194    Cartesian    0.00
    138 x          6.608853      6.607277    -0.001576    Cartesian   -0.02
    138 y         15.420658     15.417327    -0.003331    Cartesian   -0.02
    138 z          6.608853      6.607491    -0.001362    Cartesian   -0.02
    139 x          4.405902      4.403960    -0.001943    Cartesian   -0.04
    139 y         17.623609     17.609049    -0.014560    Cartesian   -0.08
    139 z          0.000000      0.000000     0.000000    Cartesian    0.00
    140 x          8.811805      8.806288    -0.005517    Cartesian   -0.06
    140 y         13.217707     13.206758    -0.010949    Cartesian   -0.08
    140 z          8.811805      8.804852    -0.006953    Cartesian   -0.08
    141 x         13.217707     13.208276    -0.009431    Cartesian   -0.07
    141 y         13.217707     13.208276    -0.009431    Cartesian   -0.07
    141 z          0.000000      0.000000     0.000000    Cartesian    0.00

  Time to end of optimisation  =       31.4536 seconds

  Timing analysis for GULP :

  Task / Subroutine                                          Time (Seconds)
  Calculation of reciprocal space energy and derivatives          0.0008
  Calculation of reciprocal space energy using symmetry           0.0012
  Calculation of real space energy and derivatives                0.0041
  Calculation of real space energy using symmetry                 0.0127
  Calculation for region 1 energy and derivatives (2-b)          15.7970
  Calculation for region 2a energy                               14.5154
  Calculation for region 2b energy                                0.0003
  Calculation and manipulation of Hessian matrix                  0.6632
  Calculation of matrix inversion                                 0.0342
  Symmetry generation of equivalent positions                     0.0050

  Dump file written as Na3OCl.grs

  Job Finished at 17:04.58  4th February   2021