  Job Started  at 17:29.09  4th February   2021

  Number of CPUs =     1

  Total number of configurations input =      1

*  Input for Configuration =   1                                               *

  Formula = O8Cl8Na24

  Number of irreducible atoms/shells =      56

  Total number atoms/shells =      56

  Dimensionality = 3               :  Bulk

  Supercell dimensions :  x =   2  y =   2  z =   2

  Cartesian lattice vectors (Angstroms) :

        9.008000    0.000000    0.000000
        0.000000    9.008000    0.000000
        0.000000    0.000000    9.008000

  Cell parameters (Angstroms/Degrees):

  a =       9.0080    alpha =  90.0000
  b =       9.0080    beta  =  90.0000
  c =       9.0080    gamma =  90.0000

  Initial cell volume =         730.945729 Angs**3

  Temperature of configuration =   0.00     K

  Pressure of configuration =         0.000 GPa

  Fractional coordinates of asymmetric unit :

   No.  Atomic       x           y          z         Charge      Occupancy
        Label      (Frac)      (Frac)     (Frac)        (e)         (Frac)
      1 O     c    0.000000    0.000000    0.000000     0.18300    1.000000
      2 O     c    0.000000 *  0.000000 *  0.500000 *   0.18300    1.000000
      3 O     c    0.000000 *  0.500000 *  0.000000 *   0.18300    1.000000
      4 O     c    0.000000 *  0.500000 *  0.500000 *   0.18300    1.000000
      5 O     c    0.500000 *  0.000000 *  0.000000 *   0.18300    1.000000
      6 O     c    0.500000 *  0.000000 *  0.500000 *   0.18300    1.000000
      7 O     c    0.500000 *  0.500000 *  0.000000 *   0.18300    1.000000
      8 O     c    0.500000 *  0.500000 *  0.500000 *   0.18300    1.000000
      9 Cl    c    0.250000 *  0.250000 *  0.250000 *   1.48500    1.000000
     10 Cl    c    0.250000 *  0.250000 *  0.750000 *   1.48500    1.000000
     11 Cl    c    0.250000 *  0.750000 *  0.250000 *   1.48500    1.000000
     12 Cl    c    0.250000 *  0.750000 *  0.750000 *   1.48500    1.000000
     13 Cl    c    0.750000 *  0.250000 *  0.250000 *   1.48500    1.000000
     14 Cl    c    0.750000 *  0.250000 *  0.750000 *   1.48500    1.000000
     15 Cl    c    0.750000 *  0.750000 *  0.250000 *   1.48500    1.000000
     16 Cl    c    0.750000 *  0.750000 *  0.750000 *   1.48500    1.000000
     17 Na    c    0.250000 *  0.000000 *  0.000000 *   1.00000    1.000000
     18 Na    c    0.250000 *  0.000000 *  0.500000 *   1.00000    1.000000
     19 Na    c    0.250000 *  0.500000 *  0.000000 *   1.00000    1.000000
     20 Na    c    0.250000 *  0.500000 *  0.500000 *   1.00000    1.000000
     21 Na    c    0.750000 *  0.000000 *  0.000000 *   1.00000    1.000000
     22 Na    c    0.750000 *  0.000000 *  0.500000 *   1.00000    1.000000
     23 Na    c    0.750000 *  0.500000 *  0.000000 *   1.00000    1.000000
     24 Na    c    0.750000 *  0.500000 *  0.500000 *   1.00000    1.000000
     25 Na    c    0.000000 *  0.250000 *  0.000000 *   1.00000    1.000000
     26 Na    c    0.000000 *  0.250000 *  0.500000 *   1.00000    1.000000
     27 Na    c    0.000000 *  0.750000 *  0.000000 *   1.00000    1.000000
     28 Na    c    0.000000 *  0.750000 *  0.500000 *   1.00000    1.000000
     29 Na    c    0.500000 *  0.250000 *  0.000000 *   1.00000    1.000000
     30 Na    c    0.500000 *  0.250000 *  0.500000 *   1.00000    1.000000
     31 Na    c    0.500000 *  0.750000 *  0.000000 *   1.00000    1.000000
     32 Na    c    0.500000 *  0.750000 *  0.500000 *   1.00000    1.000000
     33 Na    c    0.000000 *  0.000000 *  0.250000 *   1.00000    1.000000
     34 Na    c    0.000000 *  0.000000 *  0.750000 *   1.00000    1.000000
     35 Na    c    0.000000 *  0.500000 *  0.250000 *   1.00000    1.000000
     36 Na    c    0.000000 *  0.500000 *  0.750000 *   1.00000    1.000000
     37 Na    c    0.500000 *  0.000000 *  0.250000 *   1.00000    1.000000
     38 Na    c    0.500000 *  0.000000 *  0.750000 *   1.00000    1.000000
     39 Na    c    0.500000 *  0.500000 *  0.250000 *   1.00000    1.000000
     40 Na    c    0.500000 *  0.500000 *  0.750000 *   1.00000    1.000000
     41 O     s    0.000000 *  0.000000 *  0.000000 *  -2.18300    1.000000
     42 O     s    0.000000 *  0.000000 *  0.500000 *  -2.18300    1.000000
     43 O     s    0.000000 *  0.500000 *  0.000000 *  -2.18300    1.000000
     44 O     s    0.000000 *  0.500000 *  0.500000 *  -2.18300    1.000000
     45 O     s    0.500000 *  0.000000 *  0.000000 *  -2.18300    1.000000
     46 O     s    0.500000 *  0.000000 *  0.500000 *  -2.18300    1.000000
     47 O     s    0.500000 *  0.500000 *  0.000000 *  -2.18300    1.000000
     48 O     s    0.500000 *  0.500000 *  0.500000 *  -2.18300    1.000000
     49 Cl    s    0.250000 *  0.250000 *  0.250000 *  -2.48500    1.000000
     50 Cl    s    0.250000 *  0.250000 *  0.750000 *  -2.48500    1.000000
     51 Cl    s    0.250000 *  0.750000 *  0.250000 *  -2.48500    1.000000
     52 Cl    s    0.250000 *  0.750000 *  0.750000 *  -2.48500    1.000000
     53 Cl    s    0.750000 *  0.250000 *  0.250000 *  -2.48500    1.000000
     54 Cl    s    0.750000 *  0.250000 *  0.750000 *  -2.48500    1.000000
     55 Cl    s    0.750000 *  0.750000 *  0.250000 *  -2.48500    1.000000
     56 Cl    s    0.750000 *  0.750000 *  0.750000 *  -2.48500    1.000000

*  General input information                                                   *

  Species output for all configurations :

  Species    Type    Atomic    Atomic    Charge       Radii (Angs)     Library
                     Number     Mass       (e)     Cova   Ionic  VDW   Symbol
    Na       Core       11      22.99   1.000000   0.970  0.000  2.300
    O        Core        8      16.00   0.183000   0.730  0.000  1.360
    O        Shell       8       0.00  -2.183000   0.730  0.000  1.360
    Cl       Core       17      35.45   1.485000   0.990  0.000  1.650
    Cl       Shell      17       0.00  -2.485000   0.990  0.000  1.650
    Mg       Core       12      24.31   0.415000   1.100  0.000  0.000
    Mg       Shell      12       0.00   1.585000   1.100  0.000  0.000
    Ca       Core       20      40.08  -1.135000   0.990  0.000  0.000
    Ca       Shell      20       0.00   3.135000   0.990  0.000  0.000
    Sr       Core       38      87.62  -1.251000   1.120  0.000  0.000
    Sr       Shell      38       0.00   3.251000   1.120  0.000  0.000
    Ba       Core       56     137.33  -7.203000   1.340  0.000  0.000
    Ba       Shell      56       0.00   9.203000   1.340  0.000  0.000

  Lattice summation method               =    Ewald          (3-D)
                                         =    Parry          (2-D)
                                         =    Saunders et al (1-D)
  Accuracy factor for lattice sums       =   12.000

  Analytic derivatives to be used

  Time limit = Infinity

  Maximum range for interatomic potentials =    100000.000000 Angstroms

  General interatomic potentials :

Atom  Types   Potential      Parameter       Value         Units   Cutoffs(Ang)
  1     2                                                            Min /  Max
O    c O    s Spring (c-s)  Spring k 2       593.71600    eV*Ang^-2 0.000  0.800
                            Spring k 4       0.0000000    eV*Ang^-4
Cl   c Cl   s Spring (c-s)  Spring k 2       29.380000    eV*Ang^-2 0.000  0.800
                            Spring k 4       0.0000000    eV*Ang^-4
Mg   c Mg   s Spring (c-s)  Spring k 2       361.60000    eV*Ang^-2 0.000  0.800
                            Spring k 4       0.0000000    eV*Ang^-4
Ca   c Ca   s Spring (c-s)  Spring k 2       110.20000    eV*Ang^-2 0.000  0.800
                            Spring k 4       0.0000000    eV*Ang^-4
Sr   c Sr   s Spring (c-s)  Spring k 2       71.700000    eV*Ang^-2 0.000  0.800
                            Spring k 4       0.0000000    eV*Ang^-4
Ba   c Ba   s Spring (c-s)  Spring k 2       495.20000    eV*Ang^-2 0.000  0.800
                            Spring k 4       0.0000000    eV*Ang^-4
Na   c Na   c Buckingham    Buckingham A     1788.1900    eV        0.000 12.000
                            Buckingham rho  0.15900000    Ang
                            Buckingham C     0.0000000    eV*Ang^6
Na   c O    s Buckingham    Buckingham A     588.38000    eV        0.000 12.000
                            Buckingham rho  0.33800000    Ang
                            Buckingham C     0.0000000    eV*Ang^6
Na   c Cl   s Buckingham    Buckingham A     1170.4100    eV        0.000 12.000
                            Buckingham rho  0.31500000    Ang
                            Buckingham C     0.0000000    eV*Ang^6
O    s O    s Buckingham    Buckingham A     22764.300    eV        0.000 12.000
                            Buckingham rho  0.14900000    Ang
                            Buckingham C     13.190000    eV*Ang^6
O    s Cl   s Buckingham    Buckingham A     8286.9100    eV        0.000 12.000
                            Buckingham rho  0.25900000    Ang
                            Buckingham C     62.200000    eV*Ang^6
Cl   s Cl   s Buckingham    Buckingham A     1227.2000    eV        0.000 12.000
                            Buckingham rho  0.32100000    Ang
                            Buckingham C     14.530000    eV*Ang^6
O    s Mg   s Buckingham    Buckingham A     1428.5000    eV        0.000 12.000
                            Buckingham rho  0.29450000    Ang
                            Buckingham C     0.0000000    eV*Ang^6
Mg   s Cl   s Buckingham    Buckingham A     4914.5400    eV        0.000 12.000
                            Buckingham rho  0.25700000    Ang
                            Buckingham C     0.0000000    eV*Ang^6
O    s Ca   s Buckingham    Buckingham A     1090.4000    eV        0.000 12.000
                            Buckingham rho  0.34370000    Ang
                            Buckingham C     0.0000000    eV*Ang^6
Cl   s Ca   s Buckingham    Buckingham A     2302.0000    eV        0.000 12.000
                            Buckingham rho  0.34020000    Ang
                            Buckingham C     0.0000000    eV*Ang^6
O    s Sr   s Buckingham    Buckingham A     959.10000    eV        0.000 12.000
                            Buckingham rho  0.37210000    Ang
                            Buckingham C     0.0000000    eV*Ang^6
Cl   s Sr   s Buckingham    Buckingham A     2191.0900    eV        0.000 12.000
                            Buckingham rho  0.34570000    Ang
                            Buckingham C     0.0000000    eV*Ang^6
O    s Ba   s Buckingham    Buckingham A     905.70000    eV        0.000 12.000
                            Buckingham rho  0.39760000    Ang
                            Buckingham C     0.0000000    eV*Ang^6
Cl   s Ba   s Buckingham    Buckingham A     2704.5500    eV        0.000 12.000
                            Buckingham rho  0.35280000    Ang
                            Buckingham C     0.0000000    eV*Ang^6

*  Output for configuration   1                                                *

  Components of energy :

  Interatomic potentials     =          39.54523045 eV
  Monopole - monopole (real) =        -173.49412932 eV
[...]
    520 x          0.000000      0.002721     0.002721    Cartesian *******
    520 y          4.405902      4.405956     0.000053    Cartesian    0.00
    520 z         -4.405902     -4.406754    -0.000852    Cartesian    0.02
    521 x          8.811805      8.813796     0.001992    Cartesian    0.02
    521 y          0.000000     -0.000141    -0.000141    Cartesian *******
    521 z         13.217707     13.213319    -0.004388    Cartesian   -0.03
    522 x         13.217707     13.218620     0.000913    Cartesian    0.01
    522 y          0.000000      0.000282     0.000282    Cartesian *******
    522 z         -0.000000      0.004132     0.004132    Cartesian *******
    523 x         13.217707     13.221086     0.003379    Cartesian    0.03
    523 y          4.405902      4.406952     0.001049    Cartesian    0.02
    523 z         -0.000000     -0.001570    -0.001570    Cartesian *******
    524 x         11.014756     10.982135    -0.032621    Cartesian   -0.30
    524 y          6.608853      6.572231    -0.036622    Cartesian   -0.55
    524 z         11.014756     10.966618    -0.048138    Cartesian   -0.44
    525 x         11.014756     11.059193     0.044437    Cartesian    0.40
    525 y         -2.202951     -2.167954     0.034997    Cartesian   -1.59
    525 z         11.014756     11.013839    -0.000917    Cartesian   -0.01
    526 x         11.014756     11.021114     0.006358    Cartesian    0.06
    526 y         -2.202951     -2.193783     0.009169    Cartesian   -0.42
    526 z         -2.202951     -2.202697     0.000254    Cartesian   -0.01
    527 x         11.014756     11.020122     0.005366    Cartesian    0.05
    527 y          6.608853      6.617158     0.008305    Cartesian    0.13
    527 z         -2.202951     -2.195582     0.007369    Cartesian   -0.33
    528 x         -2.202951     -2.166666     0.036285    Cartesian   -1.65
    528 y          6.608853      6.651771     0.042918    Cartesian    0.65
    528 z         11.014756     11.014658    -0.000098    Cartesian   -0.00
    529 x         -2.202951     -2.266145    -0.063194    Cartesian    2.87
    529 y         -2.202951     -2.251631    -0.048680    Cartesian    2.21
    529 z         11.014756     11.072450     0.057695    Cartesian    0.52
    530 x         -2.202951     -2.196779     0.006172    Cartesian   -0.28
    530 y         -2.202951     -2.193099     0.009852    Cartesian   -0.45
    530 z         -2.202951     -2.211874    -0.008923    Cartesian    0.41
    531 x         -2.202951     -2.196485     0.006466    Cartesian   -0.29
    531 y          6.608853      6.618223     0.009369    Cartesian    0.14
    531 z         -2.202951     -2.204059    -0.001107    Cartesian    0.05
    532 x          4.405902      4.416509     0.010607    Cartesian    0.24
    532 y         -4.405902     -4.412960    -0.007058    Cartesian    0.16
    532 z         13.217707     13.221633     0.003926    Cartesian    0.03
    533 x         13.217707     13.218801     0.001094    Cartesian    0.01
    533 y         -4.405902     -4.405841     0.000061    Cartesian   -0.00
    533 z          4.405902      4.404751    -0.001152    Cartesian   -0.03
    534 x         -4.405902     -4.410918    -0.005016    Cartesian    0.11
    534 y         -4.405902     -4.415581    -0.009679    Cartesian    0.22
    534 z          4.405902      4.393626    -0.012277    Cartesian   -0.28
    535 x          4.405902      4.410635     0.004733    Cartesian    0.11
    535 y          8.811805      8.809674    -0.002130    Cartesian   -0.02
    535 z         13.217707     13.217791     0.000084    Cartesian    0.00
    536 x         -4.405902     -4.406601    -0.000699    Cartesian    0.02
    536 y          8.811805      8.812746     0.000942    Cartesian    0.01
    536 z          4.405902      4.406063     0.000160    Cartesian    0.00
    537 x         13.217707     13.215441    -0.002266    Cartesian   -0.02
    537 y          8.811805      8.807163    -0.004642    Cartesian   -0.05
    537 z          4.405902      4.412210     0.006308    Cartesian    0.14
    538 x          4.405902      4.407525     0.001623    Cartesian    0.04
    538 y         -4.405902     -4.405442     0.000461    Cartesian   -0.01
    538 z         -4.405902     -4.405721     0.000181    Cartesian   -0.00
    539 x          4.405902      4.407035     0.001132    Cartesian    0.03
    539 y          8.811805      8.811622    -0.000182    Cartesian   -0.00
    539 z         -4.405902     -4.407169    -0.001266    Cartesian    0.03
    540 x          4.405902      4.407922     0.002020    Cartesian    0.05
    540 y         -8.811805     -8.812636    -0.000832    Cartesian    0.01
    540 z          4.405902      4.404776    -0.001126    Cartesian   -0.03
    541 x          4.405902      4.407765     0.001862    Cartesian    0.04
    541 y         13.217707     13.219131     0.001424    Cartesian    0.01
    541 z          4.405902      4.406859     0.000957    Cartesian    0.02
    542 x          6.608853      6.618635     0.009782    Cartesian    0.15
    542 y          2.202951      2.214991     0.012040    Cartesian    0.55
    542 z         15.420658     15.418147    -0.002511    Cartesian   -0.02
    543 x         15.420658     15.415506    -0.005152    Cartesian   -0.03
    543 y          2.202951      2.211899     0.008948    Cartesian    0.41
    543 z          6.608853      6.606919    -0.001935    Cartesian   -0.03
    544 x         -6.608853     -6.617420    -0.008566    Cartesian    0.13
    544 y          2.202951      2.208464     0.005513    Cartesian    0.25
    544 z          6.608853      6.604687    -0.004166    Cartesian   -0.06
    545 x         15.420658     15.422320     0.001662    Cartesian    0.01
    545 y          2.202951      2.210832     0.007880    Cartesian    0.36
    545 z          2.202951      2.209586     0.006635    Cartesian    0.30
    546 x         -6.608853     -6.611106    -0.002252    Cartesian    0.03
    546 y          2.202951      2.211169     0.008217    Cartesian    0.37
    546 z          2.202951      2.193695    -0.009256    Cartesian   -0.42
    547 x          2.202951      2.220823     0.017872    Cartesian    0.81
    547 y          2.202951      2.209567     0.006616    Cartesian    0.30
    547 z         15.420658     15.429119     0.008461    Cartesian    0.05
    548 x          6.608853      6.612274     0.003420    Cartesian    0.05
    548 y          2.202951      2.206797     0.003846    Cartesian    0.17
    548 z         -6.608853     -6.608909    -0.000055    Cartesian    0.00
    549 x          2.202951      2.207055     0.004104    Cartesian    0.19
    549 y          2.202951      2.205780     0.002829    Cartesian    0.13
    549 z         -6.608853     -6.609835    -0.000981    Cartesian    0.01
    550 x          2.202951      2.216792     0.013841    Cartesian    0.63
    550 y         -6.608853     -6.621933    -0.013080    Cartesian    0.20
    550 z         11.014756     11.001965    -0.012791    Cartesian   -0.12
    551 x          6.608853      6.619192     0.010339    Cartesian    0.16
    551 y         -6.608853     -6.614752    -0.005898    Cartesian    0.09
    551 z         11.014756     11.009175    -0.005581    Cartesian   -0.05
    552 x         -2.202951     -2.187382     0.015569    Cartesian   -0.71
    552 y         -6.608853     -6.629390    -0.020537    Cartesian    0.31
    552 z          6.608853      6.596525    -0.012329    Cartesian   -0.19
    553 x          2.202951      2.209250     0.006299    Cartesian    0.29
    553 y         -6.608853     -6.605477     0.003377    Cartesian   -0.05
    553 z         -2.202951     -2.209973    -0.007021    Cartesian    0.32
    554 x          2.202951      2.218234     0.015283    Cartesian    0.69
    554 y         11.014756     11.013212    -0.001544    Cartesian   -0.01
    554 z         11.014756     11.016464     0.001708    Cartesian    0.02
    555 x          6.608853      6.621939     0.013086    Cartesian    0.20
    555 y         11.014756     11.006210    -0.008545    Cartesian   -0.08
    555 z         11.014756     11.022228     0.007472    Cartesian    0.07
    556 x         11.014756     11.026582     0.011826    Cartesian    0.11
    556 y         -6.608853     -6.605933     0.002921    Cartesian   -0.04
    556 z          2.202951      2.194900    -0.008051    Cartesian   -0.37
    557 x         -2.202951     -2.201113     0.001838    Cartesian   -0.08
    557 y         -6.608853     -6.613346    -0.004493    Cartesian    0.07
    557 z          2.202951      2.184805    -0.018147    Cartesian   -0.82
    558 x         11.014756     11.034212     0.019457    Cartesian    0.18
    558 y         -6.608853     -6.598762     0.010092    Cartesian   -0.15
    558 z          6.608853      6.602901    -0.005952    Cartesian   -0.09
    559 x          2.202951      2.210414     0.007463    Cartesian    0.34
    559 y         11.014756     11.020606     0.005850    Cartesian    0.05
    559 z         -2.202951     -2.198364     0.004587    Cartesian   -0.21
    560 x         -2.202951     -2.187523     0.015428    Cartesian   -0.70
    560 y         11.014756     11.026655     0.011899    Cartesian    0.11
    560 z          6.608853      6.614519     0.005665    Cartesian    0.09
    561 x         11.014756     11.025739     0.010983    Cartesian    0.10
    561 y         11.014756     11.003773    -0.010982    Cartesian   -0.10
    561 z          6.608853      6.622057     0.013204    Cartesian    0.20
    562 x         11.014756     11.017152     0.002397    Cartesian    0.02
    562 y         11.014756     11.013026    -0.001729    Cartesian   -0.02
    562 z          2.202951      2.218998     0.016047    Cartesian    0.73
    563 x         -2.202951     -2.192316     0.010635    Cartesian   -0.48
    563 y         11.014756     11.019801     0.005045    Cartesian    0.05
    563 z          2.202951      2.208169     0.005218    Cartesian    0.24
    564 x          6.608853      6.616890     0.008036    Cartesian    0.12
    564 y         -6.608853     -6.604066     0.004787    Cartesian   -0.07
    564 z         -2.202951     -2.208767    -0.005816    Cartesian    0.26
    565 x          6.608853      6.614963     0.006110    Cartesian    0.09
    565 y         11.014756     11.018751     0.003996    Cartesian    0.04
    565 z         -2.202951     -2.196619     0.006332    Cartesian   -0.29
    566 x         -4.405902     -4.408533    -0.002631    Cartesian    0.06
    566 y         -4.405902     -4.402128     0.003774    Cartesian   -0.09
    566 z          8.811805      8.809790    -0.002015    Cartesian   -0.02
    567 x         -4.405902     -4.405079     0.000824    Cartesian   -0.02
    567 y          8.811805      8.810787    -0.001018    Cartesian   -0.01
    567 z          8.811805      8.811163    -0.000641    Cartesian   -0.01
    568 x          0.000000     -0.002841    -0.002841    Cartesian *******
    568 y         -4.405902     -4.411772    -0.005869    Cartesian    0.13
    568 z         13.217707     13.222846     0.005139    Cartesian    0.04
    569 x         13.217707     13.219830     0.002123    Cartesian    0.02
    569 y         -4.405902     -4.409548    -0.003646    Cartesian    0.08
    569 z          8.811805      8.811740    -0.000065    Cartesian   -0.00
    570 x         -4.405902     -4.407107    -0.001204    Cartesian    0.03
    570 y         -4.405902     -4.404718     0.001184    Cartesian   -0.03
    570 z         -0.000000     -0.001956    -0.001956    Cartesian *******
    571 x          0.000000      0.006863     0.006863    Cartesian *******
    571 y          8.811805      8.809687    -0.002117    Cartesian   -0.02
    571 z         13.217707     13.214628    -0.003078    Cartesian   -0.02
    572 x          8.811805      8.812710     0.000905    Cartesian    0.01
    572 y         -4.405902     -4.404987     0.000916    Cartesian   -0.02
    572 z         -4.405902     -4.406794    -0.000891    Cartesian    0.02
    573 x          0.000000     -0.000227    -0.000227    Cartesian *******
    573 y         -4.405902     -4.405986    -0.000084    Cartesian    0.00
    573 z         -4.405902     -4.404949     0.000954    Cartesian   -0.02
    574 x         -4.405902     -4.405748     0.000154    Cartesian   -0.00
    574 y          8.811805      8.812983     0.001178    Cartesian    0.01
    574 z         -0.000000      0.000472     0.000472    Cartesian *******
    575 x         13.217707     13.217889     0.000182    Cartesian    0.00
    575 y         -4.405902     -4.405047     0.000856    Cartesian   -0.02
    575 z         -0.000000     -0.001725    -0.001725    Cartesian *******
    576 x          8.811805      8.821517     0.009712    Cartesian    0.11
    576 y         -4.405902     -4.412400    -0.006498    Cartesian    0.15
    576 z         13.217707     13.224359     0.006652    Cartesian    0.05
    577 x          0.000000      0.001014     0.001014    Cartesian *******
    577 y          8.811805      8.812766     0.000961    Cartesian    0.01
    577 z         -4.405902     -4.405654     0.000249    Cartesian   -0.01
    578 x         13.217707     13.217250    -0.000456    Cartesian   -0.00
    578 y          8.811805      8.816727     0.004923    Cartesian    0.06
    578 z          8.811805      8.812803     0.000998    Cartesian    0.01
    579 x          8.811805      8.811741    -0.000063    Cartesian   -0.00
    579 y          8.811805      8.809728    -0.002076    Cartesian   -0.02
    579 z         13.217707     13.214979    -0.002728    Cartesian   -0.02
    580 x          8.811805      8.811690    -0.000115    Cartesian   -0.00
    580 y          8.811805      8.811867     0.000063    Cartesian    0.00
    580 z         -4.405902     -4.407066    -0.001164    Cartesian    0.03
    581 x         13.217707     13.217427    -0.000279    Cartesian   -0.00
    581 y          8.811805      8.813404     0.001599    Cartesian    0.02
    581 z         -0.000000      0.000725     0.000725    Cartesian *******
    582 x          4.405902      4.413254     0.007352    Cartesian    0.17
    582 y         -8.811805     -8.809646     0.002158    Cartesian   -0.02
    582 z          8.811805      8.811042    -0.000763    Cartesian   -0.01
    583 x          0.000000      0.001692     0.001692    Cartesian *******
    583 y         -8.811805     -8.813322    -0.001518    Cartesian    0.02
    583 z          4.405902      4.403048    -0.002854    Cartesian   -0.06
    584 x          4.405902      4.407382     0.001479    Cartesian    0.03
    584 y         -8.811805     -8.812142    -0.000337    Cartesian    0.00
    584 z         -0.000000     -0.002620    -0.002620    Cartesian *******
    585 x          8.811805      8.814767     0.002963    Cartesian    0.03
    585 y         -8.811805     -8.813490    -0.001686    Cartesian    0.02
    585 z          4.405902      4.404992    -0.000910    Cartesian   -0.02
    586 x          0.000000      0.002495     0.002495    Cartesian *******
    586 y         13.217707     13.217144    -0.000563    Cartesian   -0.00
    586 z          4.405902      4.406746     0.000843    Cartesian    0.02
    587 x          8.811805      8.813229     0.001424    Cartesian    0.02
    587 y         13.217707     13.217065    -0.000642    Cartesian   -0.00
    587 z          4.405902      4.408089     0.002187    Cartesian    0.05
    588 x          4.405902      4.410613     0.004710    Cartesian    0.11
    588 y         13.217707     13.219978     0.002271    Cartesian    0.02
    588 z          8.811805      8.812127     0.000322    Cartesian    0.00
    589 x          4.405902      4.407241     0.001339    Cartesian    0.03
    589 y         13.217707     13.217483    -0.000224    Cartesian   -0.00
    589 z         -0.000000      0.001311     0.001311    Cartesian *******

  Time to end of optimisation  =      292.6300 seconds

  Timing analysis for GULP :

  Task / Subroutine                                          Time (Seconds)
  Calculation of reciprocal space energy and derivatives          0.0496
  Calculation of real space energy and derivatives                0.4789
  Calculation for region 1 energy and derivatives (2-b)          32.5147
  Calculation for region 2a energy                               17.8469
  Calculation and manipulation of Hessian matrix                166.2087
  Calculation of matrix inversion                                12.7059
  Symmetry generation of equivalent positions                     0.0035

  Dump file written as Na3OCl.grs

  **** GULP has completed with 1 warning - beware! ****

  Job Finished at 17:34.05  4th February   2021