  Job Started  at 17:30.00  4th February   2021

  Number of CPUs =     1

  Total number of configurations input =      1

*  Input for Configuration =   1                                               *

  Formula = ClONa3

  Number of irreducible atoms/shells =       5

  Total number atoms/shells =       7

  Dimensionality = 3               :  Bulk

  Symmetry :

  Crystal family                   :  Cubic
  Crystal class  (Groth - 1921)    :  Cubic Hexakisoctahedral

  Space group (centrosymmetric)    :  P M 3 M

  Patterson group                  :  P m -3 m

  Cartesian lattice vectors (Angstroms) :

        4.504000    0.000000    0.000000
        0.000000    4.504000    0.000000
        0.000000    0.000000    4.504000

  Cell parameters (Angstroms/Degrees):

  a =       4.5040    alpha =  90.0000
  b =       4.5040    beta  =  90.0000
  c =       4.5040    gamma =  90.0000

  Initial cell volume =          91.368216 Angs**3

  Temperature of configuration =   0.00     K

  Pressure of configuration =         0.000 GPa

  Fractional coordinates of asymmetric unit :

   No.  Atomic       x           y          z         Charge      Occupancy
        Label      (Frac)      (Frac)     (Frac)        (e)         (Frac)
      1 Cl    c    0.000000    0.000000    0.000000     1.48500    1.000000
      2 O     c    0.500000    0.500000    0.500000     0.18300    1.000000
      3 Na    c    0.500000    0.500000    0.000000     1.00000    1.000000
      4 Cl    s    0.000000    0.000000    0.000000    -2.48500    1.000000
      5 O     s    0.500000    0.500000    0.500000    -2.18300    1.000000

  Constraints :

  Constraint no.      Unconstrained     Constrained    Coefficient    Offset
                         Variable         Variable
           1              Strain 1        Strain 2       1.00000      0.0000
           2              Strain 1        Strain 3       1.00000      0.0000

*  General input information                                                   *

  Species output for all configurations :

  Species    Type    Atomic    Atomic    Charge       Radii (Angs)     Library
                     Number     Mass       (e)     Cova   Ionic  VDW   Symbol
    Na       Core       11      22.99   1.000000   0.970  0.000  2.300
    O        Core        8      16.00   0.183000   0.730  0.000  1.360
    O        Shell       8       0.00  -2.183000   0.730  0.000  1.360
    Cl       Core       17      35.45   1.485000   0.990  0.000  1.650
    Cl       Shell      17       0.00  -2.485000   0.990  0.000  1.650
    Mg       Core       12      24.31   0.415000   1.100  0.000  0.000
    Mg       Shell      12       0.00   1.585000   1.100  0.000  0.000
    Ca       Core       20      40.08  -1.135000   0.990  0.000  0.000
    Ca       Shell      20       0.00   3.135000   0.990  0.000  0.000
    Sr       Core       38      87.62  -1.251000   1.120  0.000  0.000
    Sr       Shell      38       0.00   3.251000   1.120  0.000  0.000
    Ba       Core       56     137.33  -7.203000   1.340  0.000  0.000
    Ba       Shell      56       0.00   9.203000   1.340  0.000  0.000

  Lattice summation method               =    Ewald          (3-D)
                                         =    Parry          (2-D)
                                         =    Saunders et al (1-D)
  Accuracy factor for lattice sums       =   12.000

  Analytic derivatives to be used

  Time limit = Infinity

  Maximum range for interatomic potentials =    100000.000000 Angstroms

  General interatomic potentials :

Atom  Types   Potential      Parameter       Value         Units   Cutoffs(Ang)
  1     2                                                            Min /  Max
O    c O    s Spring (c-s)  Spring k 2       593.71600    eV*Ang^-2 0.000  0.800
                            Spring k 4       0.0000000    eV*Ang^-4
Cl   c Cl   s Spring (c-s)  Spring k 2       29.380000    eV*Ang^-2 0.000  0.800
                            Spring k 4       0.0000000    eV*Ang^-4
Mg   c Mg   s Spring (c-s)  Spring k 2       361.60000    eV*Ang^-2 0.000  0.800
                            Spring k 4       0.0000000    eV*Ang^-4
Ca   c Ca   s Spring (c-s)  Spring k 2       110.20000    eV*Ang^-2 0.000  0.800
                            Spring k 4       0.0000000    eV*Ang^-4
Sr   c Sr   s Spring (c-s)  Spring k 2       71.700000    eV*Ang^-2 0.000  0.800
                            Spring k 4       0.0000000    eV*Ang^-4
Ba   c Ba   s Spring (c-s)  Spring k 2       495.20000    eV*Ang^-2 0.000  0.800
                            Spring k 4       0.0000000    eV*Ang^-4
Na   c Na   c Buckingham    Buckingham A     1788.1900    eV        0.000 12.000
                            Buckingham rho  0.15900000    Ang
                            Buckingham C     0.0000000    eV*Ang^6
Na   c O    s Buckingham    Buckingham A     588.38000    eV        0.000 12.000
                            Buckingham rho  0.33800000    Ang
                            Buckingham C     0.0000000    eV*Ang^6
Na   c Cl   s Buckingham    Buckingham A     1170.4100    eV        0.000 12.000
                            Buckingham rho  0.31500000    Ang
                            Buckingham C     0.0000000    eV*Ang^6
O    s O    s Buckingham    Buckingham A     22764.300    eV        0.000 12.000
                            Buckingham rho  0.14900000    Ang
                            Buckingham C     13.190000    eV*Ang^6
O    s Cl   s Buckingham    Buckingham A     8286.9100    eV        0.000 12.000
                            Buckingham rho  0.25900000    Ang
                            Buckingham C     62.200000    eV*Ang^6
Cl   s Cl   s Buckingham    Buckingham A     1227.2000    eV        0.000 12.000
                            Buckingham rho  0.32100000    Ang
                            Buckingham C     14.530000    eV*Ang^6
O    s Mg   s Buckingham    Buckingham A     1428.5000    eV        0.000 12.000
                            Buckingham rho  0.29450000    Ang
                            Buckingham C     0.0000000    eV*Ang^6
Mg   s Cl   s Buckingham    Buckingham A     4914.5400    eV        0.000 12.000
                            Buckingham rho  0.25700000    Ang
                            Buckingham C     0.0000000    eV*Ang^6
O    s Ca   s Buckingham    Buckingham A     1090.4000    eV        0.000 12.000
                            Buckingham rho  0.34370000    Ang
                            Buckingham C     0.0000000    eV*Ang^6
Cl   s Ca   s Buckingham    Buckingham A     2302.0000    eV        0.000 12.000
                            Buckingham rho  0.34020000    Ang
                            Buckingham C     0.0000000    eV*Ang^6
O    s Sr   s Buckingham    Buckingham A     959.10000    eV        0.000 12.000
                            Buckingham rho  0.37210000    Ang
                            Buckingham C     0.0000000    eV*Ang^6
Cl   s Sr   s Buckingham    Buckingham A     2191.0900    eV        0.000 12.000
                            Buckingham rho  0.34570000    Ang
                            Buckingham C     0.0000000    eV*Ang^6
O    s Ba   s Buckingham    Buckingham A     905.70000    eV        0.000 12.000
                            Buckingham rho  0.39760000    Ang
                            Buckingham C     0.0000000    eV*Ang^6
Cl   s Ba   s Buckingham    Buckingham A     2704.5500    eV        0.000 12.000
                            Buckingham rho  0.35280000    Ang
                            Buckingham C     0.0000000    eV*Ang^6

*  Output for configuration   1                                                *

  Components of energy :

  Interatomic potentials     =           4.94315381 eV
  Monopole - monopole (real) =         -10.03624526 eV
  Monopole - monopole (recip)=         -29.53581274 eV
  Monopole - monopole (total)=         -39.57205800 eV
  Total lattice energy       =         -34.62890419 eV
  Total lattice energy       =           -3341.1599 kJ/(mole unit cells)

  Number of variables =        1

  Maximum number of calculations  =          1000
  Maximum Hessian update interval =            10
  Maximum step size               =   1.000000000
  Maximum parameter tolerance     =   0.000010000
  Maximum function  tolerance     =   0.000010000
  Maximum gradient  tolerance     =   0.001000000
  Maximum gradient  component     =   0.010000000

  Symmetry constrained optimisation

  Symmetry used for second derivatives

  Cell parameters to be optimised using strains

  Newton-Raphson optimiser to be used

  BFGS hessian update to be used

  Lower half triangular hessian to be used

  Start of bulk optimisation :

  ** Hessian calculated **

  **** Optimisation achieved ****

  Final energy =     -34.67767136 eV
  Final Gnorm  =       0.00000010

  Components of energy :

  Interatomic potentials     =           5.77546103 eV
  Monopole - monopole (real) =         -10.25970290 eV
  Monopole - monopole (recip)=         -30.19342950 eV
  Monopole - monopole (total)=         -40.45313239 eV
  Total lattice energy       =         -34.67767136 eV
  Total lattice energy       =           -3345.8652 kJ/(mole unit cells)

  Final asymmetric unit coordinates :

   No.  Atomic        x           y           z         Radius
        Label       (Frac)      (Frac)      (Frac)       (Angs)
     1  Cl    c     0.000000    0.000000    0.000000    0.000000
     2  O     c     0.500000    0.500000    0.500000    0.000000
     3  Na    c     0.500000    0.500000    0.000000    0.000000
     4  Cl    s     0.000000    0.000000    0.000000    0.000000
     5  O     s     0.500000    0.500000    0.500000    0.000000

  Final Cartesian lattice vectors (Angstroms) :

        4.405902    0.000000    0.000000
        0.000000    4.405902    0.000000
        0.000000    0.000000    4.405902

  Final cell parameters and derivatives :

       a            4.405902 Angstrom     dE/de1(xx)     0.000000 eV/strain
       b            4.405902 Angstrom     dE/de2(yy)     0.000000 eV/strain
       c            4.405902 Angstrom     dE/de3(zz)     0.000000 eV/strain
       alpha       90.000000 Degrees      dE/de4(yz)     0.000000 eV/strain
       beta        90.000000 Degrees      dE/de5(xz)     0.000000 eV/strain
       gamma       90.000000 Degrees      dE/de6(xy)     0.000000 eV/strain

  Primitive cell volume =            85.527266 Angs**3

  Density of cell =      2.338030 g/cm**3

  Non-primitive cell volume =            85.527266 Angs**3

  Final internal derivatives :

   No.  Atomic          a             b             c           Radius
        Label          (eV)          (eV)          (eV)        (eV/Angs)
      1 Cl    c       0.000000      0.000000      0.000000      0.000000
      2 O     c       0.000000      0.000000      0.000000      0.000000
      3 Na    c       0.000000      0.000000      0.000000      0.000000
      4 Cl    s       0.000000      0.000000      0.000000      0.000000
      5 O     s       0.000000      0.000000      0.000000      0.000000
  Maximum abs         0.000000      0.000000      0.000000      0.000000

  Comparison of initial and final structures :

[...]
   433  Cl    s    -4.368557    4.368557    0.000000    0.000000   -2.485000
   434  Cl    s    -4.368557   -4.368557    0.000000    0.000000   -2.485000
   435  O     s    -2.202228    6.606124   -2.202228    0.000000   -2.183000
   436  O     s    -2.202228    6.606124    2.202228    0.000000   -2.183000
   437  O     s    -2.202228   -6.606124   -2.202228    0.000000   -2.183000
   438  O     s    -2.202228   -6.606124    2.202228    0.000000   -2.183000
   439  O     s     2.202228    6.606124   -2.202228    0.000000   -2.183000
   440  O     s     2.202228    6.606124    2.202228    0.000000   -2.183000
   441  O     s     2.202228   -6.606124   -2.202228    0.000000   -2.183000
   442  O     s     2.202228   -6.606124    2.202228    0.000000   -2.183000
   443  O     s     6.606124   -2.202228   -2.202228    0.000000   -2.183000
   444  O     s     6.606124   -2.202228    2.202228    0.000000   -2.183000
   445  O     s     6.606124    2.202228   -2.202228    0.000000   -2.183000
   446  O     s     6.606124    2.202228    2.202228    0.000000   -2.183000
   447  O     s    -6.606124   -2.202228   -2.202228    0.000000   -2.183000
   448  O     s    -6.606124   -2.202228    2.202228    0.000000   -2.183000
   449  O     s    -6.606124    2.202228   -2.202228    0.000000   -2.183000
   450  O     s    -6.606124    2.202228    2.202228    0.000000   -2.183000
   451  O     s    -2.202228   -2.202228    6.606124    0.000000   -2.183000
   452  O     s    -2.202228   -2.202228   -6.606124    0.000000   -2.183000
   453  O     s    -2.202228    2.202228    6.606124    0.000000   -2.183000
   454  O     s    -2.202228    2.202228   -6.606124    0.000000   -2.183000
   455  O     s     2.202228   -2.202228    6.606124    0.000000   -2.183000
   456  O     s     2.202228   -2.202228   -6.606124    0.000000   -2.183000
   457  O     s     2.202228    2.202228    6.606124    0.000000   -2.183000
   458  O     s     2.202228    2.202228   -6.606124    0.000000   -2.183000
   459  Cl    s     4.372120    4.372120    4.372120    0.000000   -2.485000
   460  Cl    s     4.372120    4.372120   -4.372120    0.000000   -2.485000
   461  Cl    s     4.372120   -4.372120    4.372120    0.000000   -2.485000
   462  Cl    s     4.372120   -4.372120   -4.372120    0.000000   -2.485000
   463  Cl    s    -4.372120    4.372120    4.372120    0.000000   -2.485000
   464  Cl    s    -4.372120    4.372120   -4.372120    0.000000   -2.485000
   465  Cl    s    -4.372120   -4.372120    4.372120    0.000000   -2.485000
   466  Cl    s    -4.372120   -4.372120   -4.372120    0.000000   -2.485000
   467  Cl    s     0.000000    0.000000    8.781153    0.000000   -2.485000
   468  Cl    s     0.000000    0.000000   -8.781153    0.000000   -2.485000
[...]
   562  O     s    11.009355   -2.200585    2.200585    0.000000   -2.183000
   563  O     s    11.009355    2.200585   -2.200585    0.000000   -2.183000
   564  O     s    11.009355    2.200585    2.200585    0.000000   -2.183000
   565  O     s   -11.009355   -2.200585   -2.200585    0.000000   -2.183000
   566  O     s   -11.009355   -2.200585    2.200585    0.000000   -2.183000
   567  O     s   -11.009355    2.200585   -2.200585    0.000000   -2.183000
   568  O     s   -11.009355    2.200585    2.200585    0.000000   -2.183000
   569  O     s     6.602865    6.602865    6.602865    0.000000   -2.183000
   570  O     s     6.602865    6.602865   -6.602865    0.000000   -2.183000
   571  O     s     6.602865   -6.602865    6.602865    0.000000   -2.183000
   572  O     s     6.602865   -6.602865   -6.602865    0.000000   -2.183000
   573  O     s    -6.602865    6.602865    6.602865    0.000000   -2.183000
   574  O     s    -6.602865    6.602865   -6.602865    0.000000   -2.183000
   575  O     s    -6.602865   -6.602865    6.602865    0.000000   -2.183000
   576  O     s    -6.602865   -6.602865   -6.602865    0.000000   -2.183000

  Final coordinates of symmetry reduced region 1 (relative to defect centre):

   No.  Atomic        x           y           z          Charge
        Label       (Angs)      (Angs)      (Angs)         (e)
     1  Na    c    -2.324256   -2.324256    0.000000    1.000000
     2  O     c    -2.182486   -2.182486   -2.182486    0.183000
     3  Cl    c     0.000000    0.000000    4.345623    1.485000
     4  Na    c     4.416940   -2.222862   -2.222862    1.000000
     5  Cl    c     0.000000    4.378486    4.378486    1.485000
     6  Na    c    -2.205367    6.621015    0.000000    1.000000
     7  O     c    -2.202230    6.606131   -2.202230    0.183000
     8  Cl    c     4.376999    4.376999    4.376999    1.485000
     9  Na    c    -2.207330    6.631721    4.409745    1.000000
    10  Cl    c     0.000000    0.000000    8.785544    1.485000
    11  Na    c    -2.197608   -2.197608    8.813953    1.000000
    12  Na    c     6.623293    6.623293    0.000000    1.000000
    13  O     c    -2.201344    6.610383    6.610383    0.183000
    14  Cl    c     0.000000    4.402671    8.794912    1.485000
    15  Na    c     6.616228    6.616228    4.405174    1.000000
    16  Cl    c     4.399988    8.793882    4.399988    1.485000
    17  Na    c    -2.205974    6.620828    8.817575    1.000000
    18  Na    c    -2.206001   11.029533    0.000000    1.000000
    19  O     c    -2.200590   -2.200590   11.009361    0.183000
    20  O     c     6.602871    6.602871    6.602871    0.183000
    21  O     s    -2.182502   -2.182502   -2.182502   -2.183000
    22  Cl    s     0.000000    0.000000    4.341239   -2.485000
    23  Cl    s     0.000000    4.368557    4.368557   -2.485000
    24  O     s    -2.202228    6.606124   -2.202228   -2.183000
    25  Cl    s     4.372120    4.372120    4.372120   -2.485000
    26  Cl    s     0.000000    0.000000    8.781153   -2.485000
    27  O     s    -2.201345    6.610384    6.610384   -2.183000
    28  Cl    s     0.000000    4.401840    8.792263   -2.485000
    29  Cl    s     4.399086    8.791148    4.399086   -2.485000
    30  O     s    -2.200585   -2.200585   11.009355   -2.183000
    31  O     s     6.602865    6.602865    6.602865   -2.183000

  Final derivatives for region 1 :

   No.  Atomic          x             y             z            Radius
        Label       (eV/Angs)     (eV/Angs)     (eV/Angs)       (eV/Angs)
     1  Na    c       0.007737      0.000000      0.000000      0.000000
     2  O     c      -0.002025      0.000000      0.000000      0.000000
     3  Cl    c       0.000000      0.000000      0.004704      0.000000
     4  Na    c       0.000153     -0.002538      0.000000      0.000000
     5  Cl    c       0.000000     -0.005291      0.000000      0.000000
     6  Na    c      -0.000393     -0.001165      0.000000      0.000000
     7  O     c      -0.000120     -0.000081      0.000000      0.000000
     8  Cl    c      -0.000674      0.000000      0.000000      0.000000
     9  Na    c       0.000385     -0.002060     -0.001002      0.000000
    10  Cl    c       0.000000      0.000000      0.000246      0.000000
    11  Na    c       0.000018      0.000000     -0.000115      0.000000
    12  Na    c      -0.000743      0.000000      0.000000      0.000000
    13  O     c       0.000020      0.000060      0.000000      0.000000
    14  Cl    c       0.000000     -0.000229     -0.000136      0.000000
    15  Na    c      -0.000873      0.000000     -0.000253      0.000000
    16  Cl    c      -0.000599     -0.000288      0.000000      0.000000
    17  Na    c       0.000013     -0.000476     -0.000405      0.000000
    18  Na    c       0.000071     -0.000539      0.000000      0.000000
    19  O     c      -0.000040      0.000000     -0.000031      0.000000
    20  O     c       0.000033      0.000000      0.000000      0.000000
    21  O     s      -0.002909      0.000000      0.000000      0.000000
    22  Cl    s       0.000000      0.000000     -0.006622      0.000000
    23  Cl    s       0.000000     -0.003529      0.000000      0.000000
    24  O     s       0.001216      0.000703      0.000000      0.000000
    25  Cl    s      -0.000075      0.000000      0.000000      0.000000
    26  Cl    s       0.000000      0.000000     -0.000351      0.000000
    27  O     s       0.000296      0.000971      0.000000      0.000000
    28  Cl    s       0.000000      0.000262      0.000048      0.000000
    29  Cl    s       0.000508      0.000078      0.000000      0.000000
    30  O     s       0.000052      0.000000      0.000401      0.000000
    31  O     s      -0.000123      0.000000      0.000000      0.000000

  Comparison of initial and final region 1 :

  Parameter   Initial value   Final value   Difference    Units      Percent
      1 x         -2.202951     -2.324256    -0.121305    Cartesian    5.51
      1 y         -2.202951     -2.324256    -0.121305    Cartesian    5.51
      1 z          0.000000      0.000000     0.000000    Cartesian    0.00
      2 x         -2.202951     -2.182486     0.020465    Cartesian   -0.93
      2 y         -2.202951     -2.182486     0.020465    Cartesian   -0.93
      2 z         -2.202951     -2.182486     0.020465    Cartesian   -0.93
      3 x          0.000000      0.000000     0.000000    Cartesian    0.00
      3 y          0.000000      0.000000     0.000000    Cartesian    0.00
      3 z          4.405902      4.345623    -0.060280    Cartesian   -1.37
      4 x          4.405902      4.416940     0.011037    Cartesian    0.25
      4 y         -2.202951     -2.222862    -0.019911    Cartesian    0.90
      4 z         -2.202951     -2.222862    -0.019911    Cartesian    0.90
      5 x          0.000000      0.000000     0.000000    Cartesian    0.00
      5 y          4.405902      4.378486    -0.027416    Cartesian   -0.62
      5 z          4.405902      4.378486    -0.027416    Cartesian   -0.62
      6 x         -2.202951     -2.205367    -0.002416    Cartesian    0.11
      6 y          6.608853      6.621015     0.012162    Cartesian    0.18
      6 z          0.000000      0.000000     0.000000    Cartesian    0.00
      7 x         -2.202951     -2.202230     0.000722    Cartesian   -0.03
      7 y          6.608853      6.606131    -0.002722    Cartesian   -0.04
      7 z         -2.202951     -2.202230     0.000722    Cartesian   -0.03
      8 x          4.405902      4.376999    -0.028903    Cartesian   -0.66
      8 y          4.405902      4.376999    -0.028903    Cartesian   -0.66
      8 z          4.405902      4.376999    -0.028903    Cartesian   -0.66
      9 x         -2.202951     -2.207330    -0.004378    Cartesian    0.20
      9 y          6.608853      6.631721     0.022868    Cartesian    0.35
      9 z          4.405902      4.409745     0.003843    Cartesian    0.09
     10 x          0.000000      0.000000     0.000000    Cartesian    0.00
     10 y          0.000000      0.000000     0.000000    Cartesian    0.00
     10 z          8.811805      8.785544    -0.026261    Cartesian   -0.30
     11 x         -2.202951     -2.197608     0.005343    Cartesian   -0.24
     11 y         -2.202951     -2.197608     0.005343    Cartesian   -0.24
     11 z          8.811805      8.813953     0.002148    Cartesian    0.02
     12 x          6.608853      6.623293     0.014439    Cartesian    0.22
     12 y          6.608853      6.623293     0.014439    Cartesian    0.22
     12 z          0.000000      0.000000     0.000000    Cartesian    0.00
     13 x         -2.202951     -2.201344     0.001607    Cartesian   -0.07
     13 y          6.608853      6.610383     0.001529    Cartesian    0.02
     13 z          6.608853      6.610383     0.001529    Cartesian    0.02
     14 x          0.000000      0.000000     0.000000    Cartesian    0.00
     14 y          4.405902      4.402671    -0.003231    Cartesian   -0.07
     14 z          8.811805      8.794912    -0.016893    Cartesian   -0.19
     15 x          6.608853      6.616228     0.007375    Cartesian    0.11
     15 y          6.608853      6.616228     0.007375    Cartesian    0.11
     15 z          4.405902      4.405174    -0.000728    Cartesian   -0.02
     16 x          4.405902      4.399988    -0.005915    Cartesian   -0.13
     16 y          8.811805      8.793882    -0.017923    Cartesian   -0.20
     16 z          4.405902      4.399988    -0.005915    Cartesian   -0.13
     17 x         -2.202951     -2.205974    -0.003023    Cartesian    0.14
     17 y          6.608853      6.620828     0.011974    Cartesian    0.18
     17 z          8.811805      8.817575     0.005771    Cartesian    0.07
     18 x         -2.202951     -2.206001    -0.003050    Cartesian    0.14
     18 y         11.014756     11.029533     0.014777    Cartesian    0.13
     18 z          0.000000      0.000000     0.000000    Cartesian    0.00
     19 x         -2.202951     -2.200590     0.002361    Cartesian   -0.11
     19 y         -2.202951     -2.200590     0.002361    Cartesian   -0.11
     19 z         11.014756     11.009361    -0.005395    Cartesian   -0.05
     20 x          6.608853      6.602871    -0.005982    Cartesian   -0.09
     20 y          6.608853      6.602871    -0.005982    Cartesian   -0.09
     20 z          6.608853      6.602871    -0.005982    Cartesian   -0.09
     21 x         -2.202951     -2.182502     0.020449    Cartesian   -0.93
     21 y         -2.202951     -2.182502     0.020449    Cartesian   -0.93
     21 z         -2.202951     -2.182502     0.020449    Cartesian   -0.93
     22 x          0.000000      0.000000     0.000000    Cartesian    0.00
     22 y          0.000000      0.000000     0.000000    Cartesian    0.00
     22 z          4.405902      4.341239    -0.064663    Cartesian   -1.47
     23 x          0.000000      0.000000     0.000000    Cartesian    0.00
     23 y          4.405902      4.368557    -0.037345    Cartesian   -0.85
     23 z          4.405902      4.368557    -0.037345    Cartesian   -0.85
     24 x         -2.202951     -2.202228     0.000723    Cartesian   -0.03
     24 y          6.608853      6.606124    -0.002730    Cartesian   -0.04
     24 z         -2.202951     -2.202228     0.000723    Cartesian   -0.03
     25 x          4.405902      4.372120    -0.033782    Cartesian   -0.77
     25 y          4.405902      4.372120    -0.033782    Cartesian   -0.77
     25 z          4.405902      4.372120    -0.033782    Cartesian   -0.77
     26 x          0.000000      0.000000     0.000000    Cartesian    0.00
     26 y          0.000000      0.000000     0.000000    Cartesian    0.00
     26 z          8.811805      8.781153    -0.030651    Cartesian   -0.35
     27 x         -2.202951     -2.201345     0.001606    Cartesian   -0.07
     27 y          6.608853      6.610384     0.001531    Cartesian    0.02
     27 z          6.608853      6.610384     0.001531    Cartesian    0.02
     28 x          0.000000      0.000000     0.000000    Cartesian    0.00
     28 y          4.405902      4.401840    -0.004062    Cartesian   -0.09
     28 z          8.811805      8.792263    -0.019542    Cartesian   -0.22
     29 x          4.405902      4.399086    -0.006816    Cartesian   -0.15
     29 y          8.811805      8.791148    -0.020657    Cartesian   -0.23
     29 z          4.405902      4.399086    -0.006816    Cartesian   -0.15
     30 x         -2.202951     -2.200585     0.002366    Cartesian   -0.11
     30 y         -2.202951     -2.200585     0.002366    Cartesian   -0.11
     30 z         11.014756     11.009355    -0.005401    Cartesian   -0.05
     31 x          6.608853      6.602865    -0.005988    Cartesian   -0.09
     31 y          6.608853      6.602865    -0.005988    Cartesian   -0.09
     31 z          6.608853      6.602865    -0.005988    Cartesian   -0.09

  Time to end of optimisation  =        2.6741 seconds

  Timing analysis for GULP :

  Task / Subroutine                                          Time (Seconds)
  Calculation of reciprocal space energy and derivatives          0.0007
  Calculation of reciprocal space energy using symmetry           0.0010
  Calculation of real space energy and derivatives                0.0038
  Calculation of real space energy using symmetry                 0.0105
  Calculation for region 1 energy and derivatives (2-b)           1.8314
  Calculation for region 2a energy                                0.6365
  Calculation for region 2b energy                                0.0002
  Calculation and manipulation of Hessian matrix                  0.0450
  Calculation of matrix inversion                                 0.0003
  Symmetry generation of equivalent positions                     0.0042

  Dump file written as Na3OCl.grs

  Job Finished at 17:30.03  4th February   2021