  Job Started  at 17:30.09  4th February   2021

  Number of CPUs =     1

  Total number of configurations input =      1

*  Input for Configuration =   1                                               *

  Formula = ClONa3

  Number of irreducible atoms/shells =       5

  Total number atoms/shells =       7

  Dimensionality = 3               :  Bulk

  Symmetry :

  Crystal family                   :  Cubic
  Crystal class  (Groth - 1921)    :  Cubic Hexakisoctahedral

  Space group (centrosymmetric)    :  P M 3 M

  Patterson group                  :  P m -3 m

  Cartesian lattice vectors (Angstroms) :

        4.504000    0.000000    0.000000
        0.000000    4.504000    0.000000
        0.000000    0.000000    4.504000

  Cell parameters (Angstroms/Degrees):

  a =       4.5040    alpha =  90.0000
  b =       4.5040    beta  =  90.0000
  c =       4.5040    gamma =  90.0000

  Initial cell volume =          91.368216 Angs**3

  Temperature of configuration =   0.00     K

  Pressure of configuration =         0.000 GPa

  Fractional coordinates of asymmetric unit :

   No.  Atomic       x           y          z         Charge      Occupancy
        Label      (Frac)      (Frac)     (Frac)        (e)         (Frac)
      1 Cl    c    0.000000    0.000000    0.000000     1.48500    1.000000
      2 O     c    0.500000    0.500000    0.500000     0.18300    1.000000
      3 Na    c    0.500000    0.500000    0.000000     1.00000    1.000000
      4 Cl    s    0.000000    0.000000    0.000000    -2.48500    1.000000
      5 O     s    0.500000    0.500000    0.500000    -2.18300    1.000000

  Constraints :

  Constraint no.      Unconstrained     Constrained    Coefficient    Offset
                         Variable         Variable
           1              Strain 1        Strain 2       1.00000      0.0000
           2              Strain 1        Strain 3       1.00000      0.0000

*  General input information                                                   *

  Species output for all configurations :

  Species    Type    Atomic    Atomic    Charge       Radii (Angs)     Library
                     Number     Mass       (e)     Cova   Ionic  VDW   Symbol
    Na       Core       11      22.99   1.000000   0.970  0.000  2.300
    O        Core        8      16.00   0.183000   0.730  0.000  1.360
    O        Shell       8       0.00  -2.183000   0.730  0.000  1.360
    Cl       Core       17      35.45   1.485000   0.990  0.000  1.650
    Cl       Shell      17       0.00  -2.485000   0.990  0.000  1.650
    Mg       Core       12      24.31   0.415000   1.100  0.000  0.000
    Mg       Shell      12       0.00   1.585000   1.100  0.000  0.000
    Ca       Core       20      40.08  -1.135000   0.990  0.000  0.000
    Ca       Shell      20       0.00   3.135000   0.990  0.000  0.000
    Sr       Core       38      87.62  -1.251000   1.120  0.000  0.000
    Sr       Shell      38       0.00   3.251000   1.120  0.000  0.000
    Ba       Core       56     137.33  -7.203000   1.340  0.000  0.000
    Ba       Shell      56       0.00   9.203000   1.340  0.000  0.000

  Lattice summation method               =    Ewald          (3-D)
                                         =    Parry          (2-D)
                                         =    Saunders et al (1-D)
  Accuracy factor for lattice sums       =   12.000

  Analytic derivatives to be used

  Time limit = Infinity

  Maximum range for interatomic potentials =    100000.000000 Angstroms

  General interatomic potentials :

Atom  Types   Potential      Parameter       Value         Units   Cutoffs(Ang)
  1     2                                                            Min /  Max
O    c O    s Spring (c-s)  Spring k 2       593.71600    eV*Ang^-2 0.000  0.800
                            Spring k 4       0.0000000    eV*Ang^-4
Cl   c Cl   s Spring (c-s)  Spring k 2       29.380000    eV*Ang^-2 0.000  0.800
                            Spring k 4       0.0000000    eV*Ang^-4
Mg   c Mg   s Spring (c-s)  Spring k 2       361.60000    eV*Ang^-2 0.000  0.800
                            Spring k 4       0.0000000    eV*Ang^-4
Ca   c Ca   s Spring (c-s)  Spring k 2       110.20000    eV*Ang^-2 0.000  0.800
                            Spring k 4       0.0000000    eV*Ang^-4
Sr   c Sr   s Spring (c-s)  Spring k 2       71.700000    eV*Ang^-2 0.000  0.800
                            Spring k 4       0.0000000    eV*Ang^-4
Ba   c Ba   s Spring (c-s)  Spring k 2       495.20000    eV*Ang^-2 0.000  0.800
                            Spring k 4       0.0000000    eV*Ang^-4
Na   c Na   c Buckingham    Buckingham A     1788.1900    eV        0.000 12.000
                            Buckingham rho  0.15900000    Ang
                            Buckingham C     0.0000000    eV*Ang^6
Na   c O    s Buckingham    Buckingham A     588.38000    eV        0.000 12.000
                            Buckingham rho  0.33800000    Ang
                            Buckingham C     0.0000000    eV*Ang^6
Na   c Cl   s Buckingham    Buckingham A     1170.4100    eV        0.000 12.000
                            Buckingham rho  0.31500000    Ang
                            Buckingham C     0.0000000    eV*Ang^6
O    s O    s Buckingham    Buckingham A     22764.300    eV        0.000 12.000
                            Buckingham rho  0.14900000    Ang
                            Buckingham C     13.190000    eV*Ang^6
O    s Cl   s Buckingham    Buckingham A     8286.9100    eV        0.000 12.000
                            Buckingham rho  0.25900000    Ang
                            Buckingham C     62.200000    eV*Ang^6
Cl   s Cl   s Buckingham    Buckingham A     1227.2000    eV        0.000 12.000
                            Buckingham rho  0.32100000    Ang
                            Buckingham C     14.530000    eV*Ang^6
O    s Mg   s Buckingham    Buckingham A     1428.5000    eV        0.000 12.000
                            Buckingham rho  0.29450000    Ang
                            Buckingham C     0.0000000    eV*Ang^6
Mg   s Cl   s Buckingham    Buckingham A     4914.5400    eV        0.000 12.000
                            Buckingham rho  0.25700000    Ang
                            Buckingham C     0.0000000    eV*Ang^6
O    s Ca   s Buckingham    Buckingham A     1090.4000    eV        0.000 12.000
                            Buckingham rho  0.34370000    Ang
                            Buckingham C     0.0000000    eV*Ang^6
Cl   s Ca   s Buckingham    Buckingham A     2302.0000    eV        0.000 12.000
                            Buckingham rho  0.34020000    Ang
                            Buckingham C     0.0000000    eV*Ang^6
O    s Sr   s Buckingham    Buckingham A     959.10000    eV        0.000 12.000
                            Buckingham rho  0.37210000    Ang
                            Buckingham C     0.0000000    eV*Ang^6
Cl   s Sr   s Buckingham    Buckingham A     2191.0900    eV        0.000 12.000
                            Buckingham rho  0.34570000    Ang
                            Buckingham C     0.0000000    eV*Ang^6
O    s Ba   s Buckingham    Buckingham A     905.70000    eV        0.000 12.000
                            Buckingham rho  0.39760000    Ang
                            Buckingham C     0.0000000    eV*Ang^6
Cl   s Ba   s Buckingham    Buckingham A     2704.5500    eV        0.000 12.000
                            Buckingham rho  0.35280000    Ang
                            Buckingham C     0.0000000    eV*Ang^6

*  Output for configuration   1                                                *

  Components of energy :

  Interatomic potentials     =           4.94315381 eV
  Monopole - monopole (real) =         -10.03624526 eV
  Monopole - monopole (recip)=         -29.53581274 eV
  Monopole - monopole (total)=         -39.57205800 eV
  Total lattice energy       =         -34.62890419 eV
  Total lattice energy       =           -3341.1599 kJ/(mole unit cells)

  Number of variables =        1

  Maximum number of calculations  =          1000
  Maximum Hessian update interval =            10
  Maximum step size               =   1.000000000
  Maximum parameter tolerance     =   0.000010000
  Maximum function  tolerance     =   0.000010000
  Maximum gradient  tolerance     =   0.001000000
  Maximum gradient  component     =   0.010000000

  Symmetry constrained optimisation

  Symmetry used for second derivatives

  Cell parameters to be optimised using strains

  Newton-Raphson optimiser to be used

  BFGS hessian update to be used

  Lower half triangular hessian to be used

  Start of bulk optimisation :

  ** Hessian calculated **

  **** Optimisation achieved ****

  Final energy =     -34.67767136 eV
  Final Gnorm  =       0.00000010

  Components of energy :

  Interatomic potentials     =           5.77546103 eV
  Monopole - monopole (real) =         -10.25970290 eV
  Monopole - monopole (recip)=         -30.19342950 eV
  Monopole - monopole (total)=         -40.45313239 eV
  Total lattice energy       =         -34.67767136 eV
  Total lattice energy       =           -3345.8652 kJ/(mole unit cells)

  Final asymmetric unit coordinates :

   No.  Atomic        x           y           z         Radius
        Label       (Frac)      (Frac)      (Frac)       (Angs)
     1  Cl    c     0.000000    0.000000    0.000000    0.000000
     2  O     c     0.500000    0.500000    0.500000    0.000000
     3  Na    c     0.500000    0.500000    0.000000    0.000000
     4  Cl    s     0.000000    0.000000    0.000000    0.000000
     5  O     s     0.500000    0.500000    0.500000    0.000000

  Final Cartesian lattice vectors (Angstroms) :

        4.405902    0.000000    0.000000
        0.000000    4.405902    0.000000
        0.000000    0.000000    4.405902

  Final cell parameters and derivatives :

       a            4.405902 Angstrom     dE/de1(xx)     0.000000 eV/strain
       b            4.405902 Angstrom     dE/de2(yy)     0.000000 eV/strain
       c            4.405902 Angstrom     dE/de3(zz)     0.000000 eV/strain
       alpha       90.000000 Degrees      dE/de4(yz)     0.000000 eV/strain
       beta        90.000000 Degrees      dE/de5(xz)     0.000000 eV/strain
       gamma       90.000000 Degrees      dE/de6(xy)     0.000000 eV/strain

  Primitive cell volume =            85.527266 Angs**3

  Density of cell =      2.338030 g/cm**3

  Non-primitive cell volume =            85.527266 Angs**3

  Final internal derivatives :

   No.  Atomic          a             b             c           Radius
        Label          (eV)          (eV)          (eV)        (eV/Angs)
      1 Cl    c       0.000000      0.000000      0.000000      0.000000
      2 O     c       0.000000      0.000000      0.000000      0.000000
      3 Na    c       0.000000      0.000000      0.000000      0.000000
      4 Cl    s       0.000000      0.000000      0.000000      0.000000
      5 O     s       0.000000      0.000000      0.000000      0.000000
  Maximum abs         0.000000      0.000000      0.000000      0.000000

  Comparison of initial and final structures :

[...]

  Parameter   Initial value   Final value   Difference    Units      Percent
      1 x          2.202951      2.202951     0.000000    Cartesian    0.00
      1 y          2.202951      2.202951     0.000000    Cartesian    0.00
      1 z          0.000000      0.000000     0.000000    Cartesian    0.00
      2 x          2.202951      2.202951     0.000000    Cartesian    0.00
      2 y          2.202951      2.202951     0.000000    Cartesian    0.00
      2 z         -2.202951     -2.261465    -0.058514    Cartesian    2.66
      3 x          4.405902      4.356685    -0.049217    Cartesian   -1.12
      3 y          4.405902      4.356685    -0.049217    Cartesian   -1.12
      3 z          0.000000      0.000000     0.000000    Cartesian    0.00
      4 x          4.405902      4.473125     0.067223    Cartesian    1.53
      4 y          2.202951      2.202951     0.000000    Cartesian    0.00
      4 z         -2.202951     -2.497090    -0.294139    Cartesian   13.35
      5 x          2.202951      2.202951     0.000000    Cartesian    0.00
      5 y          2.202951      2.202951     0.000000    Cartesian    0.00
      5 z          4.405902      4.492839     0.086937    Cartesian    1.97
      6 x          2.202951      2.202951     0.000000    Cartesian    0.00
      6 y          6.608853      6.530831    -0.078022    Cartesian   -1.18
      6 z          0.000000      0.000000     0.000000    Cartesian    0.00
      7 x          2.202951      2.202951     0.000000    Cartesian    0.00
      7 y          6.608853      6.619388     0.010535    Cartesian    0.16
      7 z         -2.202951     -2.217956    -0.015005    Cartesian    0.68
      8 x          4.405902      4.410650     0.004748    Cartesian    0.11
      8 y          6.608853      6.652617     0.043764    Cartesian    0.66
      8 z         -2.202951     -2.203102    -0.000150    Cartesian    0.01
      9 x          4.405902      4.376301    -0.029602    Cartesian   -0.67
      9 y          4.405902      4.376301    -0.029602    Cartesian   -0.67
      9 z          4.405902      4.404290    -0.001612    Cartesian   -0.04
     10 x          2.202951      2.202951     0.000000    Cartesian    0.00
     10 y          6.608853      6.772574     0.163721    Cartesian    2.48
     10 z          4.405902      4.430639     0.024736    Cartesian    0.56
     11 x          6.608853      6.649936     0.041083    Cartesian    0.62
     11 y          6.608853      6.649936     0.041083    Cartesian    0.62
     11 z          0.000000      0.000000     0.000000    Cartesian    0.00
     12 x          2.202951      2.202951     0.000000    Cartesian    0.00
     12 y          2.202951      2.202951     0.000000    Cartesian    0.00
     12 z          6.608853      6.637049     0.028196    Cartesian    0.43
     13 x          6.608853      6.607106    -0.001747    Cartesian   -0.03
     13 y          6.608853      6.607106    -0.001747    Cartesian   -0.03
     13 z         -2.202951     -2.200186     0.002765    Cartesian   -0.13
     14 x          4.405902      4.400873    -0.005029    Cartesian   -0.11
     14 y          8.811805      8.783882    -0.027923    Cartesian   -0.32
     14 z          0.000000      0.000000     0.000000    Cartesian    0.00
     15 x          4.405902      4.419484     0.013582    Cartesian    0.31
     15 y          2.202951      2.202951     0.000000    Cartesian    0.00
     15 z          6.608853      6.636763     0.027909    Cartesian    0.42
     16 x          8.811805      8.826814     0.015009    Cartesian    0.17
     16 y          2.202951      2.202951     0.000000    Cartesian    0.00
     16 z         -2.202951     -2.120287     0.082665    Cartesian   -3.75
     17 x          6.608853      6.616396     0.007543    Cartesian    0.11
     17 y          6.608853      6.616396     0.007543    Cartesian    0.11
     17 z          4.405902      4.408041     0.002138    Cartesian    0.05
     18 x          2.202951      2.202951     0.000000    Cartesian    0.00
     18 y          6.608853      6.622552     0.013699    Cartesian    0.21
     18 z          6.608853      6.617353     0.008500    Cartesian    0.13
     19 x          4.405902      4.402756    -0.003146    Cartesian   -0.07
     19 y          8.811805      8.797663    -0.014141    Cartesian   -0.16
     19 z          4.405902      4.395200    -0.010702    Cartesian   -0.24
     20 x          4.405902      4.406912     0.001010    Cartesian    0.02
     20 y          6.608853      6.618131     0.009277    Cartesian    0.14
     20 z          6.608853      6.631584     0.022731    Cartesian    0.34
     21 x          8.811805      8.818683     0.006879    Cartesian    0.08
     21 y          6.608853      6.624675     0.015822    Cartesian    0.24
     21 z         -2.202951     -2.215946    -0.012995    Cartesian    0.59
     22 x          2.202951      2.202951     0.000000    Cartesian    0.00
     22 y          2.202951      2.202951     0.000000    Cartesian    0.00
     22 z          8.811805      8.827985     0.016180    Cartesian    0.18
     23 x          2.202951      2.202951     0.000000    Cartesian    0.00
     23 y         11.014756     11.102920     0.088164    Cartesian    0.80
     23 z          0.000000      0.000000     0.000000    Cartesian    0.00
     24 x          6.608853      6.606203    -0.002651    Cartesian   -0.04
     24 y          6.608853      6.606203    -0.002651    Cartesian   -0.04
     24 z          6.608853      6.606881    -0.001973    Cartesian   -0.03
     25 x          2.202951      2.202951     0.000000    Cartesian    0.00
     25 y         11.014756     11.020472     0.005716    Cartesian    0.05
     25 z         -2.202951     -2.199391     0.003560    Cartesian   -0.16
     26 x          4.405902      4.407923     0.002020    Cartesian    0.05
     26 y          4.405902      4.407923     0.002020    Cartesian    0.05
     26 z          8.811805      8.797885    -0.013919    Cartesian   -0.16
     27 x          8.811805      8.799310    -0.012495    Cartesian   -0.14
     27 y          8.811805      8.799310    -0.012495    Cartesian   -0.14
     27 z          0.000000      0.000000     0.000000    Cartesian    0.00
     28 x          8.811805      8.824054     0.012249    Cartesian    0.14
     28 y          2.202951      2.202951     0.000000    Cartesian    0.00
     28 z          6.608853      6.677585     0.068732    Cartesian    1.04
     29 x          4.405902      4.407108     0.001206    Cartesian    0.03
     29 y         11.014756     11.025993     0.011237    Cartesian    0.10
     29 z         -2.202951     -2.206318    -0.003367    Cartesian    0.15
     30 x          2.202951      2.202951     0.000000    Cartesian    0.00
     30 y          6.608853      6.603047    -0.005806    Cartesian   -0.09
     30 z          8.811805      8.821108     0.009303    Cartesian    0.11
     31 x          2.202951      2.202951     0.000000    Cartesian    0.00
     31 y         11.014756     10.986760    -0.027996    Cartesian   -0.25
     31 z          4.405902      4.406143     0.000241    Cartesian    0.01
     32 x          6.608853      6.611554     0.002701    Cartesian    0.04
     32 y         11.014756     11.020796     0.006040    Cartesian    0.05
     32 z          0.000000      0.000000     0.000000    Cartesian    0.00
     33 x          6.608853      6.609456     0.000602    Cartesian    0.01
     33 y         11.014756     11.014160    -0.000596    Cartesian   -0.01
     33 z         -2.202951     -2.203474    -0.000523    Cartesian    0.02
     34 x          8.811805      8.800153    -0.011652    Cartesian   -0.13
     34 y          8.811805      8.800153    -0.011652    Cartesian   -0.13
     34 z          4.405902      4.397048    -0.008854    Cartesian   -0.20
     35 x          8.811805      8.813109     0.001304    Cartesian    0.01
     35 y          6.608853      6.608587    -0.000267    Cartesian   -0.00
     35 z          6.608853      6.608550    -0.000303    Cartesian   -0.00
     36 x          6.608853      6.615552     0.006698    Cartesian    0.10
     36 y         11.014756     11.028041     0.013285    Cartesian    0.12
     36 z          4.405902      4.406567     0.000664    Cartesian    0.02
     37 x          6.608853      6.617273     0.008420    Cartesian    0.13
     37 y          6.608853      6.617273     0.008420    Cartesian    0.13
     37 z          8.811805      8.815111     0.003306    Cartesian    0.04
     38 x          2.202951      2.202951     0.000000    Cartesian    0.00
     38 y          2.202951      2.202951     0.000000    Cartesian    0.00
     38 z         11.014756     11.020185     0.005429    Cartesian    0.05
     39 x          2.202951      2.202951     0.000000    Cartesian    0.00
     39 y         11.014756     11.011604    -0.003152    Cartesian   -0.03
     39 z          6.608853      6.609233     0.000380    Cartesian    0.01
     40 x          4.405902      4.398996    -0.006906    Cartesian   -0.16
     40 y          8.811805      8.802892    -0.008913    Cartesian   -0.10
     40 z          8.811805      8.799653    -0.012151    Cartesian   -0.14
     41 x          4.405902      4.405161    -0.000741    Cartesian   -0.02
     41 y         13.217707     13.194917    -0.022790    Cartesian   -0.17
     41 z          0.000000      0.000000     0.000000    Cartesian    0.00
     42 x          4.405902      4.405772    -0.000131    Cartesian   -0.00
     42 y          2.202951      2.202951     0.000000    Cartesian    0.00
     42 z         11.014756     11.035446     0.020690    Cartesian    0.19
     43 x          4.405902      4.406473     0.000571    Cartesian    0.01
     43 y         11.014756     11.032405     0.017649    Cartesian    0.16
     43 z          6.608853      6.610343     0.001489    Cartesian    0.02
     44 x         13.217707     13.225774     0.008067    Cartesian    0.06
     44 y          2.202951      2.202951     0.000000    Cartesian    0.00
     44 z         -2.202951     -2.236328    -0.033376    Cartesian    1.52
     45 x          8.811805      8.815885     0.004081    Cartesian    0.05
     45 y         11.014756     11.030947     0.016192    Cartesian    0.15
     45 z         -2.202951     -2.204630    -0.001679    Cartesian    0.08
     46 x          2.202951      2.202951     0.000000    Cartesian    0.00
     46 y          6.608853      6.603922    -0.004931    Cartesian   -0.07
     46 z         11.014756     11.010105    -0.004651    Cartesian   -0.04
     47 x          6.608853      6.605306    -0.003548    Cartesian   -0.05
     47 y         11.014756     11.009658    -0.005098    Cartesian   -0.05
     47 z          6.608853      6.603495    -0.005359    Cartesian   -0.08
     48 x          2.202951      2.202951     0.000000    Cartesian    0.00
     48 y          2.202951      2.202951     0.000000    Cartesian    0.00
     48 z          0.000000      0.000000     0.000000    Cartesian    0.00
     49 x          2.202951      2.202951     0.000000    Cartesian    0.00
     49 y          2.202951      2.202951     0.000000    Cartesian    0.00
     49 z         -2.202951     -2.261047    -0.058096    Cartesian    2.64
     50 x          4.405902      4.329950    -0.075953    Cartesian   -1.72
     50 y          4.405902      4.329950    -0.075953    Cartesian   -1.72
     50 z          0.000000      0.000000     0.000000    Cartesian    0.00
     51 x          2.202951      2.202951     0.000000    Cartesian    0.00
     51 y          6.608853      6.619358     0.010505    Cartesian    0.16
     51 z         -2.202951     -2.217992    -0.015041    Cartesian    0.68
     52 x          4.405902      4.365164    -0.040739    Cartesian   -0.92
     52 y          4.405902      4.365164    -0.040739    Cartesian   -0.92
     52 z          4.405902      4.392023    -0.013879    Cartesian   -0.32
     53 x          2.202951      2.202951     0.000000    Cartesian    0.00
     53 y          2.202951      2.202951     0.000000    Cartesian    0.00
     53 z          6.608853      6.636988     0.028135    Cartesian    0.43
     54 x          6.608853      6.607110    -0.001744    Cartesian   -0.03
     54 y          6.608853      6.607110    -0.001744    Cartesian   -0.03
     54 z         -2.202951     -2.200185     0.002766    Cartesian   -0.13
     55 x          4.405902      4.398877    -0.007026    Cartesian   -0.16
     55 y          8.811805      8.779271    -0.032533    Cartesian   -0.37
     55 z          0.000000      0.000000     0.000000    Cartesian    0.00
     56 x          2.202951      2.202951     0.000000    Cartesian    0.00
     56 y          6.608853      6.622576     0.013723    Cartesian    0.21
     56 z          6.608853      6.617359     0.008506    Cartesian    0.13
     57 x          4.405902      4.400455    -0.005447    Cartesian   -0.12
     57 y          8.811805      8.792669    -0.019135    Cartesian   -0.22
     57 z          4.405902      4.393283    -0.012620    Cartesian   -0.29
     58 x          6.608853      6.606201    -0.002653    Cartesian   -0.04
     58 y          6.608853      6.606201    -0.002653    Cartesian   -0.04
     58 z          6.608853      6.606879    -0.001974    Cartesian   -0.03
     59 x          2.202951      2.202951     0.000000    Cartesian    0.00
     59 y         11.014756     11.020471     0.005715    Cartesian    0.05
     59 z         -2.202951     -2.199379     0.003572    Cartesian   -0.16
     60 x          4.405902      4.408011     0.002109    Cartesian    0.05
     60 y          4.405902      4.408011     0.002109    Cartesian    0.05
     60 z          8.811805      8.794695    -0.017109    Cartesian   -0.19
     61 x          8.811805      8.795956    -0.015849    Cartesian   -0.18
     61 y          8.811805      8.795956    -0.015849    Cartesian   -0.18
     61 z          0.000000      0.000000     0.000000    Cartesian    0.00
     62 x          6.608853      6.609455     0.000602    Cartesian    0.01
     62 y         11.014756     11.014160    -0.000596    Cartesian   -0.01
     62 z         -2.202951     -2.203477    -0.000526    Cartesian    0.02
     63 x          8.811805      8.798013    -0.013792    Cartesian   -0.16
     63 y          8.811805      8.798013    -0.013792    Cartesian   -0.16
     63 z          4.405902      4.395588    -0.010314    Cartesian   -0.23
     64 x          2.202951      2.202951     0.000000    Cartesian    0.00
     64 y          2.202951      2.202951     0.000000    Cartesian    0.00
     64 z         11.014756     11.020189     0.005434    Cartesian    0.05
     65 x          2.202951      2.202951     0.000000    Cartesian    0.00
     65 y         11.014756     11.011586    -0.003169    Cartesian   -0.03
     65 z          6.608853      6.609247     0.000394    Cartesian    0.01
     66 x          4.405902      4.396969    -0.008933    Cartesian   -0.20
     66 y          8.811805      8.801259    -0.010546    Cartesian   -0.12
     66 z          8.811805      8.796997    -0.014807    Cartesian   -0.17
     67 x          4.405902      4.404467    -0.001435    Cartesian   -0.03
     67 y         13.217707     13.190761    -0.026946    Cartesian   -0.20
     67 z          0.000000      0.000000     0.000000    Cartesian    0.00
     68 x          2.202951      2.202951     0.000000    Cartesian    0.00
     68 y          6.608853      6.603914    -0.004940    Cartesian   -0.07
     68 z         11.014756     11.010090    -0.004666    Cartesian   -0.04
     69 x          6.608853      6.605301    -0.003553    Cartesian   -0.05
     69 y         11.014756     11.009654    -0.005102    Cartesian   -0.05
     69 z          6.608853      6.603486    -0.005368    Cartesian   -0.08

  Time to end of optimisation  =        4.3092 seconds

  Timing analysis for GULP :

  Task / Subroutine                                          Time (Seconds)
  Calculation of reciprocal space energy and derivatives          0.0008
  Calculation of reciprocal space energy using symmetry           0.0012
  Calculation of real space energy and derivatives                0.0040
  Calculation of real space energy using symmetry                 0.0123
  Calculation for region 1 energy and derivatives (2-b)           2.7788
  Calculation for region 2a energy                                1.3206
  Calculation for region 2b energy                                0.0002
  Calculation and manipulation of Hessian matrix                  0.0916
  Calculation of matrix inversion                                 0.0029
  Symmetry generation of equivalent positions                     0.0048

  Dump file written as Na3OCl.grs

  Job Finished at 17:30.14  4th February   2021