  Job Started  at 17:30.35  4th February   2021

  Number of CPUs =     1

  Total number of configurations input =      1

*  Input for Configuration =   1                                               *

  Formula = O8Cl8Na24

  Number of irreducible atoms/shells =      56

  Total number atoms/shells =      56

  Dimensionality = 3               :  Bulk

  Supercell dimensions :  x =   2  y =   2  z =   2

  Cartesian lattice vectors (Angstroms) :

        9.008000    0.000000    0.000000
        0.000000    9.008000    0.000000
        0.000000    0.000000    9.008000

  Cell parameters (Angstroms/Degrees):

  a =       9.0080    alpha =  90.0000
  b =       9.0080    beta  =  90.0000
  c =       9.0080    gamma =  90.0000

  Initial cell volume =         730.945729 Angs**3

  Temperature of configuration =   0.00     K

  Pressure of configuration =         0.000 GPa

  Fractional coordinates of asymmetric unit :

   No.  Atomic       x           y          z         Charge      Occupancy
        Label      (Frac)      (Frac)     (Frac)        (e)         (Frac)
      1 O     c    0.000000    0.000000    0.000000     0.18300    1.000000
      2 O     c    0.000000 *  0.000000 *  0.500000 *   0.18300    1.000000
      3 O     c    0.000000 *  0.500000 *  0.000000 *   0.18300    1.000000
      4 O     c    0.000000 *  0.500000 *  0.500000 *   0.18300    1.000000
      5 O     c    0.500000 *  0.000000 *  0.000000 *   0.18300    1.000000
      6 O     c    0.500000 *  0.000000 *  0.500000 *   0.18300    1.000000
      7 O     c    0.500000 *  0.500000 *  0.000000 *   0.18300    1.000000
      8 O     c    0.500000 *  0.500000 *  0.500000 *   0.18300    1.000000
      9 Cl    c    0.250000 *  0.250000 *  0.250000 *   1.48500    1.000000
     10 Cl    c    0.250000 *  0.250000 *  0.750000 *   1.48500    1.000000
     11 Cl    c    0.250000 *  0.750000 *  0.250000 *   1.48500    1.000000
     12 Cl    c    0.250000 *  0.750000 *  0.750000 *   1.48500    1.000000
     13 Cl    c    0.750000 *  0.250000 *  0.250000 *   1.48500    1.000000
     14 Cl    c    0.750000 *  0.250000 *  0.750000 *   1.48500    1.000000
     15 Cl    c    0.750000 *  0.750000 *  0.250000 *   1.48500    1.000000
     16 Cl    c    0.750000 *  0.750000 *  0.750000 *   1.48500    1.000000
     17 Na    c    0.250000 *  0.000000 *  0.000000 *   1.00000    1.000000
     18 Na    c    0.250000 *  0.000000 *  0.500000 *   1.00000    1.000000
     19 Na    c    0.250000 *  0.500000 *  0.000000 *   1.00000    1.000000
     20 Na    c    0.250000 *  0.500000 *  0.500000 *   1.00000    1.000000
     21 Na    c    0.750000 *  0.000000 *  0.000000 *   1.00000    1.000000
     22 Na    c    0.750000 *  0.000000 *  0.500000 *   1.00000    1.000000
     23 Na    c    0.750000 *  0.500000 *  0.000000 *   1.00000    1.000000
     24 Na    c    0.750000 *  0.500000 *  0.500000 *   1.00000    1.000000
     25 Na    c    0.000000 *  0.250000 *  0.000000 *   1.00000    1.000000
     26 Na    c    0.000000 *  0.250000 *  0.500000 *   1.00000    1.000000
     27 Na    c    0.000000 *  0.750000 *  0.000000 *   1.00000    1.000000
     28 Na    c    0.000000 *  0.750000 *  0.500000 *   1.00000    1.000000
     29 Na    c    0.500000 *  0.250000 *  0.000000 *   1.00000    1.000000
     30 Na    c    0.500000 *  0.250000 *  0.500000 *   1.00000    1.000000
     31 Na    c    0.500000 *  0.750000 *  0.000000 *   1.00000    1.000000
     32 Na    c    0.500000 *  0.750000 *  0.500000 *   1.00000    1.000000
     33 Na    c    0.000000 *  0.000000 *  0.250000 *   1.00000    1.000000
     34 Na    c    0.000000 *  0.000000 *  0.750000 *   1.00000    1.000000
     35 Na    c    0.000000 *  0.500000 *  0.250000 *   1.00000    1.000000
     36 Na    c    0.000000 *  0.500000 *  0.750000 *   1.00000    1.000000
     37 Na    c    0.500000 *  0.000000 *  0.250000 *   1.00000    1.000000
     38 Na    c    0.500000 *  0.000000 *  0.750000 *   1.00000    1.000000
     39 Na    c    0.500000 *  0.500000 *  0.250000 *   1.00000    1.000000
     40 Na    c    0.500000 *  0.500000 *  0.750000 *   1.00000    1.000000
     41 O     s    0.000000 *  0.000000 *  0.000000 *  -2.18300    1.000000
     42 O     s    0.000000 *  0.000000 *  0.500000 *  -2.18300    1.000000
     43 O     s    0.000000 *  0.500000 *  0.000000 *  -2.18300    1.000000
     44 O     s    0.000000 *  0.500000 *  0.500000 *  -2.18300    1.000000
     45 O     s    0.500000 *  0.000000 *  0.000000 *  -2.18300    1.000000
     46 O     s    0.500000 *  0.000000 *  0.500000 *  -2.18300    1.000000
     47 O     s    0.500000 *  0.500000 *  0.000000 *  -2.18300    1.000000
     48 O     s    0.500000 *  0.500000 *  0.500000 *  -2.18300    1.000000
     49 Cl    s    0.250000 *  0.250000 *  0.250000 *  -2.48500    1.000000
     50 Cl    s    0.250000 *  0.250000 *  0.750000 *  -2.48500    1.000000
     51 Cl    s    0.250000 *  0.750000 *  0.250000 *  -2.48500    1.000000
     52 Cl    s    0.250000 *  0.750000 *  0.750000 *  -2.48500    1.000000
     53 Cl    s    0.750000 *  0.250000 *  0.250000 *  -2.48500    1.000000
     54 Cl    s    0.750000 *  0.250000 *  0.750000 *  -2.48500    1.000000
     55 Cl    s    0.750000 *  0.750000 *  0.250000 *  -2.48500    1.000000
     56 Cl    s    0.750000 *  0.750000 *  0.750000 *  -2.48500    1.000000

*  General input information                                                   *

  Species output for all configurations :

  Species    Type    Atomic    Atomic    Charge       Radii (Angs)     Library
                     Number     Mass       (e)     Cova   Ionic  VDW   Symbol
    Na       Core       11      22.99   1.000000   0.970  0.000  2.300
    O        Core        8      16.00   0.183000   0.730  0.000  1.360
    O        Shell       8       0.00  -2.183000   0.730  0.000  1.360
    Cl       Core       17      35.45   1.485000   0.990  0.000  1.650
    Cl       Shell      17       0.00  -2.485000   0.990  0.000  1.650
    Mg       Core       12      24.31   0.415000   1.100  0.000  0.000
    Mg       Shell      12       0.00   1.585000   1.100  0.000  0.000
    Ca       Core       20      40.08  -1.135000   0.990  0.000  0.000
    Ca       Shell      20       0.00   3.135000   0.990  0.000  0.000
    Sr       Core       38      87.62  -1.251000   1.120  0.000  0.000
    Sr       Shell      38       0.00   3.251000   1.120  0.000  0.000
    Ba       Core       56     137.33  -7.203000   1.340  0.000  0.000
    Ba       Shell      56       0.00   9.203000   1.340  0.000  0.000

  Lattice summation method               =    Ewald          (3-D)
                                         =    Parry          (2-D)
                                         =    Saunders et al (1-D)
  Accuracy factor for lattice sums       =   12.000

  Analytic derivatives to be used

  Time limit = Infinity

  Maximum range for interatomic potentials =    100000.000000 Angstroms

  General interatomic potentials :

Atom  Types   Potential      Parameter       Value         Units   Cutoffs(Ang)
  1     2                                                            Min /  Max
O    c O    s Spring (c-s)  Spring k 2       593.71600    eV*Ang^-2 0.000  0.800
                            Spring k 4       0.0000000    eV*Ang^-4
Cl   c Cl   s Spring (c-s)  Spring k 2       29.380000    eV*Ang^-2 0.000  0.800
                            Spring k 4       0.0000000    eV*Ang^-4
Mg   c Mg   s Spring (c-s)  Spring k 2       361.60000    eV*Ang^-2 0.000  0.800
                            Spring k 4       0.0000000    eV*Ang^-4
Ca   c Ca   s Spring (c-s)  Spring k 2       110.20000    eV*Ang^-2 0.000  0.800
                            Spring k 4       0.0000000    eV*Ang^-4
Sr   c Sr   s Spring (c-s)  Spring k 2       71.700000    eV*Ang^-2 0.000  0.800
                            Spring k 4       0.0000000    eV*Ang^-4
Ba   c Ba   s Spring (c-s)  Spring k 2       495.20000    eV*Ang^-2 0.000  0.800
                            Spring k 4       0.0000000    eV*Ang^-4
Na   c Na   c Buckingham    Buckingham A     1788.1900    eV        0.000 12.000
                            Buckingham rho  0.15900000    Ang
                            Buckingham C     0.0000000    eV*Ang^6
Na   c O    s Buckingham    Buckingham A     588.38000    eV        0.000 12.000
                            Buckingham rho  0.33800000    Ang
                            Buckingham C     0.0000000    eV*Ang^6
Na   c Cl   s Buckingham    Buckingham A     1170.4100    eV        0.000 12.000
                            Buckingham rho  0.31500000    Ang
                            Buckingham C     0.0000000    eV*Ang^6
O    s O    s Buckingham    Buckingham A     22764.300    eV        0.000 12.000
                            Buckingham rho  0.14900000    Ang
                            Buckingham C     13.190000    eV*Ang^6
O    s Cl   s Buckingham    Buckingham A     8286.9100    eV        0.000 12.000
                            Buckingham rho  0.25900000    Ang
                            Buckingham C     62.200000    eV*Ang^6
Cl   s Cl   s Buckingham    Buckingham A     1227.2000    eV        0.000 12.000
                            Buckingham rho  0.32100000    Ang
                            Buckingham C     14.530000    eV*Ang^6
O    s Mg   s Buckingham    Buckingham A     1428.5000    eV        0.000 12.000
                            Buckingham rho  0.29450000    Ang
                            Buckingham C     0.0000000    eV*Ang^6
Mg   s Cl   s Buckingham    Buckingham A     4914.5400    eV        0.000 12.000
                            Buckingham rho  0.25700000    Ang
                            Buckingham C     0.0000000    eV*Ang^6
O    s Ca   s Buckingham    Buckingham A     1090.4000    eV        0.000 12.000
                            Buckingham rho  0.34370000    Ang
                            Buckingham C     0.0000000    eV*Ang^6
Cl   s Ca   s Buckingham    Buckingham A     2302.0000    eV        0.000 12.000
                            Buckingham rho  0.34020000    Ang
                            Buckingham C     0.0000000    eV*Ang^6
O    s Sr   s Buckingham    Buckingham A     959.10000    eV        0.000 12.000
                            Buckingham rho  0.37210000    Ang
                            Buckingham C     0.0000000    eV*Ang^6
Cl   s Sr   s Buckingham    Buckingham A     2191.0900    eV        0.000 12.000
                            Buckingham rho  0.34570000    Ang
                            Buckingham C     0.0000000    eV*Ang^6
O    s Ba   s Buckingham    Buckingham A     905.70000    eV        0.000 12.000
                            Buckingham rho  0.39760000    Ang
                            Buckingham C     0.0000000    eV*Ang^6
Cl   s Ba   s Buckingham    Buckingham A     2704.5500    eV        0.000 12.000
                            Buckingham rho  0.35280000    Ang
                            Buckingham C     0.0000000    eV*Ang^6

*  Output for configuration   1                                                *

  Components of energy :

  Interatomic potentials     =          39.54523045 eV
  Monopole - monopole (real) =        -173.49412932 eV
[...]
    519 z         -4.405902     -4.407014    -0.001112    Cartesian    0.03
    520 x          0.000000      0.004134     0.004134    Cartesian *******
    520 y          4.405902      4.405965     0.000062    Cartesian    0.00
    520 z         -4.405902     -4.406991    -0.001089    Cartesian    0.02
    521 x          8.811805      8.811620    -0.000185    Cartesian   -0.00
    521 y          0.000000      0.002338     0.002338    Cartesian *******
    521 z         13.217707     13.212719    -0.004988    Cartesian   -0.04
    522 x         13.217707     13.218503     0.000796    Cartesian    0.01
    522 y          0.000000     -0.000047    -0.000047    Cartesian *******
    522 z         -0.000000      0.002834     0.002834    Cartesian *******
    523 x         13.217707     13.221079     0.003372    Cartesian    0.03
    523 y          4.405902      4.407352     0.001450    Cartesian    0.03
    523 z         -0.000000     -0.001032    -0.001032    Cartesian *******
    524 x         11.014756     11.011976    -0.002780    Cartesian   -0.03
    524 y          6.608853      6.595324    -0.013529    Cartesian   -0.20
    524 z         11.014756     10.988735    -0.026021    Cartesian   -0.24
    525 x         11.014756     11.055328     0.040573    Cartesian    0.37
    525 y         -2.202951     -2.171513     0.031438    Cartesian   -1.43
    525 z         11.014756     11.014750    -0.000006    Cartesian   -0.00
    526 x         11.014756     11.020835     0.006079    Cartesian    0.06
    526 y         -2.202951     -2.193548     0.009403    Cartesian   -0.43
    526 z         -2.202951     -2.202731     0.000220    Cartesian   -0.01
    527 x         11.014756     11.018911     0.004155    Cartesian    0.04
    527 y          6.608853      6.617522     0.008669    Cartesian    0.13
    527 z         -2.202951     -2.195052     0.007899    Cartesian   -0.36
    528 x         -2.202951     -2.175701     0.027251    Cartesian   -1.24
    528 y          6.608853      6.654950     0.046097    Cartesian    0.70
    528 z         11.014756     11.013457    -0.001298    Cartesian   -0.01
    529 x         -2.202951     -2.270943    -0.067992    Cartesian    3.09
    529 y         -2.202951     -2.254060    -0.051109    Cartesian    2.32
    529 z         11.014756     11.070195     0.055439    Cartesian    0.50
    530 x         -2.202951     -2.196364     0.006587    Cartesian   -0.30
    530 y         -2.202951     -2.193091     0.009860    Cartesian   -0.45
    530 z         -2.202951     -2.212342    -0.009391    Cartesian    0.43
    531 x         -2.202951     -2.196271     0.006680    Cartesian   -0.30
    531 y          6.608853      6.618766     0.009913    Cartesian    0.15
    531 z         -2.202951     -2.204541    -0.001590    Cartesian    0.07
    532 x          4.405902      4.415900     0.009998    Cartesian    0.23
    532 y         -4.405902     -4.412357    -0.006455    Cartesian    0.15
    532 z         13.217707     13.221912     0.004205    Cartesian    0.03
    533 x         13.217707     13.218430     0.000723    Cartesian    0.01
    533 y         -4.405902     -4.406691    -0.000789    Cartesian    0.02
    533 z          4.405902      4.404192    -0.001710    Cartesian   -0.04
    534 x         -4.405902     -4.411165    -0.005262    Cartesian    0.12
    534 y         -4.405902     -4.415907    -0.010005    Cartesian    0.23
    534 z          4.405902      4.393402    -0.012501    Cartesian   -0.28
    535 x          4.405902      4.412329     0.006427    Cartesian    0.15
    535 y          8.811805      8.807445    -0.004360    Cartesian   -0.05
    535 z         13.217707     13.216184    -0.001522    Cartesian   -0.01
    536 x         -4.405902     -4.407768    -0.001865    Cartesian    0.04
    536 y          8.811805      8.813172     0.001367    Cartesian    0.02
    536 z          4.405902      4.404795    -0.001108    Cartesian   -0.03
    537 x         13.217707     13.216858    -0.000849    Cartesian   -0.01
    537 y          8.811805      8.809862    -0.001943    Cartesian   -0.02
    537 z          4.405902      4.409550     0.003648    Cartesian    0.08
    538 x          4.405902      4.407334     0.001432    Cartesian    0.03
    538 y         -4.405902     -4.405305     0.000598    Cartesian   -0.01
    538 z         -4.405902     -4.405639     0.000263    Cartesian   -0.01
    539 x          4.405902      4.407565     0.001663    Cartesian    0.04
    539 y          8.811805      8.811609    -0.000195    Cartesian   -0.00
    539 z         -4.405902     -4.406744    -0.000841    Cartesian    0.02
    540 x          4.405902      4.408444     0.002542    Cartesian    0.06
    540 y         -8.811805     -8.812335    -0.000530    Cartesian    0.01
    540 z          4.405902      4.404921    -0.000981    Cartesian   -0.02
    541 x          4.405902      4.407732     0.001829    Cartesian    0.04
    541 y         13.217707     13.218207     0.000501    Cartesian    0.00
    541 z          4.405902      4.407627     0.001725    Cartesian    0.04
    542 x          6.608853      6.618191     0.009338    Cartesian    0.14
    542 y          2.202951      2.217380     0.014429    Cartesian    0.65
    542 z         15.420658     15.414126    -0.006532    Cartesian   -0.04
    543 x         15.420658     15.418684    -0.001974    Cartesian   -0.01
    543 y          2.202951      2.209257     0.006306    Cartesian    0.29
    543 z          6.608853      6.604348    -0.004506    Cartesian   -0.07
    544 x         -6.608853     -6.618143    -0.009290    Cartesian    0.14
    544 y          2.202951      2.207022     0.004071    Cartesian    0.18
    544 z          6.608853      6.601725    -0.007129    Cartesian   -0.11
    545 x         15.420658     15.424789     0.004131    Cartesian    0.03
    545 y          2.202951      2.213951     0.011000    Cartesian    0.50
    545 z          2.202951      2.205770     0.002819    Cartesian    0.13
    546 x         -6.608853     -6.612525    -0.003672    Cartesian    0.06
    546 y          2.202951      2.211664     0.008713    Cartesian    0.40
    546 z          2.202951      2.192534    -0.010418    Cartesian   -0.47
    547 x          2.202951      2.223992     0.021041    Cartesian    0.96
    547 y          2.202951      2.212143     0.009192    Cartesian    0.42
    547 z         15.420658     15.430332     0.009674    Cartesian    0.06
    548 x          6.608853      6.612145     0.003291    Cartesian    0.05
    548 y          2.202951      2.206942     0.003991    Cartesian    0.18
    548 z         -6.608853     -6.608879    -0.000025    Cartesian    0.00
    549 x          2.202951      2.207258     0.004307    Cartesian    0.20
    549 y          2.202951      2.206314     0.003363    Cartesian    0.15
    549 z         -6.608853     -6.609619    -0.000765    Cartesian    0.01
    550 x          2.202951      2.217804     0.014853    Cartesian    0.67
    550 y         -6.608853     -6.621631    -0.012777    Cartesian    0.19
    550 z         11.014756     11.001934    -0.012821    Cartesian   -0.12
    551 x          6.608853      6.619058     0.010204    Cartesian    0.15
    551 y         -6.608853     -6.612955    -0.004101    Cartesian    0.06
    551 z         11.014756     11.008274    -0.006482    Cartesian   -0.06
    552 x         -2.202951     -2.187064     0.015887    Cartesian   -0.72
    552 y         -6.608853     -6.629156    -0.020302    Cartesian    0.31
    552 z          6.608853      6.595756    -0.013098    Cartesian   -0.20
    553 x          2.202951      2.209431     0.006480    Cartesian    0.29
    553 y         -6.608853     -6.605387     0.003466    Cartesian   -0.05
    553 z         -2.202951     -2.210083    -0.007132    Cartesian    0.32
    554 x          2.202951      2.220902     0.017951    Cartesian    0.81
    554 y         11.014756     11.013180    -0.001576    Cartesian   -0.01
    554 z         11.014756     11.015790     0.001034    Cartesian    0.01
    555 x          6.608853      6.621587     0.012733    Cartesian    0.19
    555 y         11.014756     11.001640    -0.013116    Cartesian   -0.12
    555 z         11.014756     11.020376     0.005620    Cartesian    0.05
    556 x         11.014756     11.026454     0.011699    Cartesian    0.11
    556 y         -6.608853     -6.605576     0.003277    Cartesian   -0.05
    556 z          2.202951      2.194668    -0.008283    Cartesian   -0.38
    557 x         -2.202951     -2.200491     0.002460    Cartesian   -0.11
    557 y         -6.608853     -6.613443    -0.004589    Cartesian    0.07
    557 z          2.202951      2.184693    -0.018258    Cartesian   -0.83
    558 x         11.014756     11.032759     0.018003    Cartesian    0.16
    558 y         -6.608853     -6.598645     0.010208    Cartesian   -0.15
    558 z          6.608853      6.602237    -0.006616    Cartesian   -0.10
    559 x          2.202951      2.210522     0.007571    Cartesian    0.34
    559 y         11.014756     11.020589     0.005834    Cartesian    0.05
    559 z         -2.202951     -2.197743     0.005208    Cartesian   -0.24
    560 x         -2.202951     -2.190104     0.012847    Cartesian   -0.58
    560 y         11.014756     11.030215     0.015459    Cartesian    0.14
    560 z          6.608853      6.616405     0.007552    Cartesian    0.11
    561 x         11.014756     11.022830     0.008074    Cartesian    0.07
    561 y         11.014756     11.004881    -0.009874    Cartesian   -0.09
    561 z          6.608853      6.623552     0.014698    Cartesian    0.22
    562 x         11.014756     11.013271    -0.001485    Cartesian   -0.01
    562 y         11.014756     11.013686    -0.001070    Cartesian   -0.01
    562 z          2.202951      2.219042     0.016091    Cartesian    0.73
    563 x         -2.202951     -2.192739     0.010212    Cartesian   -0.46
    563 y         11.014756     11.021477     0.006721    Cartesian    0.06
    563 z          2.202951      2.206582     0.003631    Cartesian    0.16
    564 x          6.608853      6.616775     0.007922    Cartesian    0.12
    564 y         -6.608853     -6.603844     0.005010    Cartesian   -0.08
    564 z         -2.202951     -2.208692    -0.005740    Cartesian    0.26
    565 x          6.608853      6.614792     0.005939    Cartesian    0.09
    565 y         11.014756     11.018654     0.003898    Cartesian    0.04
    565 z         -2.202951     -2.195726     0.007225    Cartesian   -0.33
    566 x         -4.405902     -4.409887    -0.003985    Cartesian    0.09
    566 y         -4.405902     -4.403064     0.002838    Cartesian   -0.06
    566 z          8.811805      8.809486    -0.002319    Cartesian   -0.03
    567 x         -4.405902     -4.407884    -0.001982    Cartesian    0.04
    567 y          8.811805      8.812312     0.000507    Cartesian    0.01
    567 z          8.811805      8.810695    -0.001110    Cartesian   -0.01
    568 x          0.000000     -0.002618    -0.002618    Cartesian *******
    568 y         -4.405902     -4.411998    -0.006096    Cartesian    0.14
    568 z         13.217707     13.222396     0.004689    Cartesian    0.04
    569 x         13.217707     13.221070     0.003363    Cartesian    0.03
    569 y         -4.405902     -4.408490    -0.002587    Cartesian    0.06
    569 z          8.811805      8.811682    -0.000122    Cartesian   -0.00
    570 x         -4.405902     -4.407162    -0.001260    Cartesian    0.03
    570 y         -4.405902     -4.404975     0.000927    Cartesian   -0.02
    570 z         -0.000000     -0.002280    -0.002280    Cartesian *******
    571 x          0.000000      0.005188     0.005188    Cartesian *******
    571 y          8.811805      8.812188     0.000383    Cartesian    0.00
    571 z         13.217707     13.216380    -0.001327    Cartesian   -0.01
    572 x          8.811805      8.812800     0.000995    Cartesian    0.01
    572 y         -4.405902     -4.404889     0.001014    Cartesian   -0.02
    572 z         -4.405902     -4.406642    -0.000739    Cartesian    0.02
    573 x          0.000000     -0.000089    -0.000089    Cartesian *******
    573 y         -4.405902     -4.406036    -0.000133    Cartesian    0.00
    573 z         -4.405902     -4.404973     0.000930    Cartesian   -0.02
    574 x         -4.405902     -4.406079    -0.000177    Cartesian    0.00
    574 y          8.811805      8.813193     0.001388    Cartesian    0.02
    574 z         -0.000000      0.000071     0.000071    Cartesian *******
    575 x         13.217707     13.217957     0.000250    Cartesian    0.00
    575 y         -4.405902     -4.404932     0.000970    Cartesian   -0.02
    575 z         -0.000000     -0.001681    -0.001681    Cartesian *******
    576 x          8.811805      8.821654     0.009849    Cartesian    0.11
    576 y         -4.405902     -4.411393    -0.005491    Cartesian    0.12
    576 z         13.217707     13.224064     0.006357    Cartesian    0.05
    577 x          0.000000      0.001042     0.001042    Cartesian *******
    577 y          8.811805      8.812828     0.001023    Cartesian    0.01
    577 z         -4.405902     -4.405589     0.000313    Cartesian   -0.01
    578 x         13.217707     13.220535     0.002828    Cartesian    0.02
    578 y          8.811805      8.820272     0.008467    Cartesian    0.10
    578 z          8.811805      8.811919     0.000114    Cartesian    0.00
    579 x          8.811805      8.808741    -0.003064    Cartesian   -0.03
    579 y          8.811805      8.808510    -0.003295    Cartesian   -0.04
    579 z         13.217707     13.214005    -0.003702    Cartesian   -0.03
    580 x          8.811805      8.811395    -0.000410    Cartesian   -0.00
    580 y          8.811805      8.811808     0.000004    Cartesian    0.00
    580 z         -4.405902     -4.406891    -0.000988    Cartesian    0.02
    581 x         13.217707     13.216921    -0.000786    Cartesian   -0.01
    581 y          8.811805      8.813603     0.001798    Cartesian    0.02
    581 z         -0.000000      0.000113     0.000113    Cartesian *******
    582 x          4.405902      4.412803     0.006901    Cartesian    0.16
    582 y         -8.811805     -8.809625     0.002180    Cartesian   -0.02
    582 z          8.811805      8.811057    -0.000748    Cartesian   -0.01
    583 x          0.000000      0.001721     0.001721    Cartesian *******
    583 y         -8.811805     -8.813139    -0.001335    Cartesian    0.02
    583 z          4.405902      4.403086    -0.002816    Cartesian   -0.06
    584 x          4.405902      4.407308     0.001406    Cartesian    0.03
    584 y         -8.811805     -8.812062    -0.000258    Cartesian    0.00
    584 z         -0.000000     -0.002636    -0.002636    Cartesian *******
    585 x          8.811805      8.814403     0.002598    Cartesian    0.03
    585 y         -8.811805     -8.813401    -0.001596    Cartesian    0.02
    585 z          4.405902      4.405020    -0.000882    Cartesian   -0.02
    586 x          0.000000      0.002586     0.002586    Cartesian *******
    586 y         13.217707     13.217263    -0.000444    Cartesian   -0.00
    586 z          4.405902      4.406759     0.000857    Cartesian    0.02
    587 x          8.811805      8.812585     0.000781    Cartesian    0.01
    587 y         13.217707     13.216498    -0.001209    Cartesian   -0.01
    587 z          4.405902      4.408566     0.002664    Cartesian    0.06
    588 x          4.405902      4.412151     0.006249    Cartesian    0.14
    588 y         13.217707     13.218076     0.000369    Cartesian    0.00
    588 z          8.811805      8.812619     0.000814    Cartesian    0.01
    589 x          4.405902      4.407410     0.001507    Cartesian    0.03
    589 y         13.217707     13.217314    -0.000393    Cartesian   -0.00
    589 z         -0.000000      0.001648     0.001648    Cartesian *******

  Time to end of optimisation  =      394.3036 seconds

  Timing analysis for GULP :

  Task / Subroutine                                          Time (Seconds)
  Calculation of reciprocal space energy and derivatives          0.0539
  Calculation of real space energy and derivatives                0.5684
  Calculation for region 1 energy and derivatives (2-b)          42.3786
  Calculation for region 2a energy                               24.6139
  Calculation and manipulation of Hessian matrix                249.6695
  Calculation of matrix inversion                                15.5768
  Symmetry generation of equivalent positions                     0.0038

  Dump file written as Na3OCl.grs

  Job Finished at 17:37.10  4th February   2021