  Job Started  at 14:26.06  3rd January    2021

  Number of CPUs =     1

  Total number of configurations input =      1

*  Input for Configuration =   1                                               *

  Formula = ClONa3

  Number of irreducible atoms/shells =       5

  Total number atoms/shells =       7

  Dimensionality = 3               :  Bulk

  Symmetry :

  Crystal family                   :  Cubic
  Crystal class  (Groth - 1921)    :  Cubic Hexakisoctahedral

  Space group (centrosymmetric)    :  P M 3 M

  Patterson group                  :  P m -3 m

  Cartesian lattice vectors (Angstroms) :

        4.504000    0.000000    0.000000
        0.000000    4.504000    0.000000
        0.000000    0.000000    4.504000

  Cell parameters (Angstroms/Degrees):

  a =       4.5040    alpha =  90.0000
  b =       4.5040    beta  =  90.0000
  c =       4.5040    gamma =  90.0000

  Initial cell volume =          91.368216 Angs**3

  Temperature of configuration =   0.00     K

  Pressure of configuration =         0.000 GPa

  Fractional coordinates of asymmetric unit :

   No.  Atomic       x           y          z         Charge      Occupancy
        Label      (Frac)      (Frac)     (Frac)        (e)         (Frac)
      1 Cl    c    0.000000    0.000000    0.000000     1.48500    1.000000
      2 O     c    0.500000    0.500000    0.500000     0.18300    1.000000
      3 Na    c    0.500000    0.500000    0.000000     1.00000    1.000000
      4 Cl    s    0.000000    0.000000    0.000000    -2.48500    1.000000
      5 O     s    0.500000    0.500000    0.500000    -2.18300    1.000000

  Constraints :

  Constraint no.      Unconstrained     Constrained    Coefficient    Offset
                         Variable         Variable
           1              Strain 1        Strain 2       1.00000      0.0000
           2              Strain 1        Strain 3       1.00000      0.0000

*  General input information                                                   *

  Species output for all configurations :

  Species    Type    Atomic    Atomic    Charge       Radii (Angs)     Library
                     Number     Mass       (e)     Cova   Ionic  VDW   Symbol
    Na       Core       11      22.99   1.000000   0.970  0.000  2.300
    O        Core        8      16.00   0.183000   0.730  0.000  1.360
    O        Shell       8       0.00  -2.183000   0.730  0.000  1.360
    Cl       Core       17      35.45   1.485000   0.990  0.000  1.650
    Cl       Shell      17       0.00  -2.485000   0.990  0.000  1.650
    Mg       Core       12      24.31   0.415000   1.100  0.000  0.000
    Mg       Shell      12       0.00   1.585000   1.100  0.000  0.000
    Ca       Core       20      40.08  -1.135000   0.990  0.000  0.000
    Ca       Shell      20       0.00   3.135000   0.990  0.000  0.000
    Sr       Core       38      87.62  -1.251000   1.120  0.000  0.000
    Sr       Shell      38       0.00   3.251000   1.120  0.000  0.000
    Ba       Core       56     137.33  -7.203000   1.340  0.000  0.000
    Ba       Shell      56       0.00   9.203000   1.340  0.000  0.000

  Lattice summation method               =    Ewald          (3-D)
                                         =    Parry          (2-D)
                                         =    Saunders et al (1-D)
  Accuracy factor for lattice sums       =   12.000

  Analytic derivatives to be used

  Time limit = Infinity

  Maximum range for interatomic potentials =    100000.000000 Angstroms

  General interatomic potentials :

Atom  Types   Potential      Parameter       Value         Units   Cutoffs(Ang)
  1     2                                                            Min /  Max
O    c O    s Spring (c-s)  Spring k 2       593.71600    eV*Ang^-2 0.000  0.800
                            Spring k 4       0.0000000    eV*Ang^-4
Cl   c Cl   s Spring (c-s)  Spring k 2       29.380000    eV*Ang^-2 0.000  0.800
                            Spring k 4       0.0000000    eV*Ang^-4
Mg   c Mg   s Spring (c-s)  Spring k 2       361.60000    eV*Ang^-2 0.000  0.800
                            Spring k 4       0.0000000    eV*Ang^-4
Ca   c Ca   s Spring (c-s)  Spring k 2       110.20000    eV*Ang^-2 0.000  0.800
                            Spring k 4       0.0000000    eV*Ang^-4
Sr   c Sr   s Spring (c-s)  Spring k 2       71.700000    eV*Ang^-2 0.000  0.800
                            Spring k 4       0.0000000    eV*Ang^-4
Ba   c Ba   s Spring (c-s)  Spring k 2       495.20000    eV*Ang^-2 0.000  0.800
                            Spring k 4       0.0000000    eV*Ang^-4
Na   c Na   c Buckingham    Buckingham A     1788.1900    eV        0.000 12.000
                            Buckingham rho  0.15900000    Ang
                            Buckingham C     0.0000000    eV*Ang^6
Na   c O    s Buckingham    Buckingham A     369.22000    eV        0.000 12.000
                            Buckingham rho  0.37600000    Ang
                            Buckingham C     0.0000000    eV*Ang^6
Na   c Cl   s Buckingham    Buckingham A     1775.1200    eV        0.000 12.000
                            Buckingham rho  0.30000000    Ang
                            Buckingham C     0.0000000    eV*Ang^6
O    s O    s Buckingham    Buckingham A     22764.300    eV        0.000 12.000
                            Buckingham rho  0.14900000    Ang
                            Buckingham C     13.190000    eV*Ang^6
O    s Cl   s Buckingham    Buckingham A     8286.9100    eV        0.000 12.000
                            Buckingham rho  0.25900000    Ang
                            Buckingham C     62.200000    eV*Ang^6
Cl   s Cl   s Buckingham    Buckingham A     1227.2000    eV        0.000 12.000
                            Buckingham rho  0.32100000    Ang
                            Buckingham C     14.530000    eV*Ang^6
O    s Mg   s Buckingham    Buckingham A     1428.5000    eV        0.000 12.000
                            Buckingham rho  0.29450000    Ang
                            Buckingham C     0.0000000    eV*Ang^6
Mg   s Cl   s Buckingham    Buckingham A     4914.5400    eV        0.000 12.000
                            Buckingham rho  0.25700000    Ang
                            Buckingham C     0.0000000    eV*Ang^6
O    s Ca   s Buckingham    Buckingham A     1090.4000    eV        0.000 12.000
                            Buckingham rho  0.34370000    Ang
                            Buckingham C     0.0000000    eV*Ang^6
Cl   s Ca   s Buckingham    Buckingham A     2302.0000    eV        0.000 12.000
                            Buckingham rho  0.34020000    Ang
                            Buckingham C     0.0000000    eV*Ang^6
O    s Sr   s Buckingham    Buckingham A     959.10000    eV        0.000 12.000
                            Buckingham rho  0.37210000    Ang
                            Buckingham C     0.0000000    eV*Ang^6
Cl   s Sr   s Buckingham    Buckingham A     2191.0900    eV        0.000 12.000
                            Buckingham rho  0.34570000    Ang
                            Buckingham C     0.0000000    eV*Ang^6
O    s Ba   s Buckingham    Buckingham A     905.70000    eV        0.000 12.000
                            Buckingham rho  0.39760000    Ang
                            Buckingham C     0.0000000    eV*Ang^6
Cl   s Ba   s Buckingham    Buckingham A     2704.5500    eV        0.000 12.000
                            Buckingham rho  0.35280000    Ang
                            Buckingham C     0.0000000    eV*Ang^6

*  Output for configuration   1                                                *

  Components of energy :

  Interatomic potentials     =           5.94260302 eV
  Monopole - monopole (real) =         -10.03624526 eV
  Monopole - monopole (recip)=         -29.53581274 eV
  Monopole - monopole (total)=         -39.57205800 eV
  Total lattice energy       =         -33.62945497 eV
  Total lattice energy       =           -3244.7283 kJ/(mole unit cells)

  Number of variables =        1

  Maximum number of calculations  =          1000
  Maximum Hessian update interval =            10
  Maximum step size               =   1.000000000
  Maximum parameter tolerance     =   0.000010000
  Maximum function  tolerance     =   0.000010000
  Maximum gradient  tolerance     =   0.001000000
  Maximum gradient  component     =   0.010000000

  Symmetry constrained optimisation

  Symmetry used for second derivatives

  Cell parameters to be optimised using strains

  Newton-Raphson optimiser to be used

  BFGS hessian update to be used

  Lower half triangular hessian to be used

  Start of bulk optimisation :

  ** Hessian calculated **

  **** Optimisation achieved ****

  Final energy =     -33.63378233 eV
  Final Gnorm  =       0.00011077

  Components of energy :

  Interatomic potentials     =           6.20931397 eV
  Monopole - monopole (real) =         -10.10498585 eV
  Monopole - monopole (recip)=         -29.73811044 eV
  Monopole - monopole (total)=         -39.84309629 eV
  Total lattice energy       =         -33.63378233 eV
  Total lattice energy       =           -3245.1459 kJ/(mole unit cells)

  Final asymmetric unit coordinates :

   No.  Atomic        x           y           z         Radius
        Label       (Frac)      (Frac)      (Frac)       (Angs)
     1  Cl    c     0.000000    0.000000    0.000000    0.000000
     2  O     c     0.500000    0.500000    0.500000    0.000000
     3  Na    c     0.500000    0.500000    0.000000    0.000000
     4  Cl    s     0.000000    0.000000    0.000000    0.000000
     5  O     s     0.500000    0.500000    0.500000    0.000000

  Final Cartesian lattice vectors (Angstroms) :

        4.473361    0.000000    0.000000
        0.000000    4.473361    0.000000
        0.000000    0.000000    4.473361

  Final cell parameters and derivatives :

       a            4.473361 Angstrom     dE/de1(xx)     0.000111 eV/strain
       b            4.473361 Angstrom     dE/de2(yy)     0.000000 eV/strain
       c            4.473361 Angstrom     dE/de3(zz)     0.000000 eV/strain
       alpha       90.000000 Degrees      dE/de4(yz)     0.000000 eV/strain
       beta        90.000000 Degrees      dE/de5(xz)     0.000000 eV/strain
       gamma       90.000000 Degrees      dE/de6(xy)     0.000000 eV/strain

  Primitive cell volume =            89.516236 Angs**3

  Density of cell =      2.233844 g/cm**3

  Non-primitive cell volume =            89.516236 Angs**3

  Final internal derivatives :

   No.  Atomic          a             b             c           Radius
        Label          (eV)          (eV)          (eV)        (eV/Angs)
      1 Cl    c       0.000000      0.000000      0.000000      0.000000
      2 O     c       0.000000      0.000000      0.000000      0.000000
      3 Na    c       0.000000      0.000000      0.000000      0.000000
      4 Cl    s       0.000000      0.000000      0.000000      0.000000
      5 O     s       0.000000      0.000000      0.000000      0.000000
  Maximum abs         0.000000      0.000000      0.000000      0.000000

  Comparison of initial and final structures :

[...]
   310  Cl    s     8.978972   -4.505611    0.000000    0.000000   -2.485000
   311  Cl    s    -4.505611    8.978972    0.000000    0.000000   -2.485000
   312  Cl    s    -4.505611   -4.505611    0.000000    0.000000   -2.485000

  Final coordinates of symmetry reduced region 1 (relative to defect centre):

   No.  Atomic        x           y           z          Charge
        Label       (Angs)      (Angs)      (Angs)         (e)
     1  O     c     0.000000    0.000000   -2.349659    0.183000
     2  Cl    c     2.343124    2.343124    0.000000    1.485000
     3  Na    c     2.135464    0.000000   -1.900573    1.000000
     4  Na    c     0.000000    0.000000    4.467428    1.000000
     5  Na    c     0.000000    4.670921    0.000000    1.000000
     6  O     c     0.000000    4.442096   -2.216511    0.183000
     7  Na    c     2.229608    4.429151   -2.238049    1.000000
     8  Cl    c     2.317548    2.317548    4.571330    1.485000
     9  Na    c     0.000000    4.240667    4.446871    1.000000
    10  Na    c     4.453592    4.453592    0.000000    1.000000
    11  O     c     0.000000    0.000000    6.745983    0.183000
    12  O     c     4.475723    4.475723   -2.242564    0.183000
    13  Cl    c     2.238202    6.733996    0.000000    1.485000
    14  Na    c     2.224639    0.000000    6.758164    1.000000
    15  Na    c     6.683510    0.000000   -2.378376    1.000000
    16  Na    c     4.463516    4.463516    4.477500    1.000000
    17  O     c     0.000000    4.449855    6.706319    0.183000
    18  Cl    c     2.239293    6.740416    4.474523    1.485000
    19  Na    c     2.238510    4.463923    6.681950    1.000000
    20  Na    c     6.703081    4.461968   -2.240220    1.000000
    21  Na    c     0.000000    0.000000    8.970421    1.000000
    22  Na    c     0.000000    8.857786    0.000000    1.000000
    23  O     c     0.000000    8.935020   -2.249158    0.183000
    24  O     c     4.487337    4.487337    6.723060    0.183000
    25  Cl    c     2.232733    2.232733    8.991810    1.485000
    26  Cl    c     6.738782    6.738782    0.000000    1.485000
    27  Na    c     2.232200    8.922351   -2.223523    1.000000
    28  Na    c     6.684655    0.000000    6.644579    1.000000
    29  O     s     0.000000    0.000000   -2.349825   -2.183000
    30  Cl    s     2.346739    2.346739    0.000000   -2.485000
    31  O     s     0.000000    4.442174   -2.216493   -2.183000
    32  Cl    s     2.329264    2.329264    4.583938   -2.485000
    33  O     s     0.000000    0.000000    6.746046   -2.183000
    34  O     s     4.475727    4.475727   -2.242570   -2.183000
    35  Cl    s     2.236790    6.736680    0.000000   -2.485000
    36  O     s     0.000000    4.449820    6.706339   -2.183000
    37  Cl    s     2.238568    6.745557    4.473783   -2.485000
    38  O     s     0.000000    8.935012   -2.249196   -2.183000
    39  O     s     4.487352    4.487352    6.723065   -2.183000
    40  Cl    s     2.231335    2.231335    8.995252   -2.485000
    41  Cl    s     6.742292    6.742292    0.000000   -2.485000

  Final derivatives for region 1 :

   No.  Atomic          x             y             z            Radius
        Label       (eV/Angs)     (eV/Angs)     (eV/Angs)       (eV/Angs)
     1  O     c       0.000000      0.000000     -0.000224      0.000000
     2  Cl    c       0.007186      0.000000      0.000000      0.000000
     3  Na    c       0.003261      0.000000     -0.003326      0.000000
     4  Na    c       0.000000      0.000000     -0.000040      0.000000
     5  Na    c       0.000000      0.000491      0.000000      0.000000
     6  O     c       0.000000      0.000203      0.000168      0.000000
     7  Na    c      -0.000856      0.000750     -0.000052      0.000000
     8  Cl    c       0.001587      0.000000      0.000928      0.000000
     9  Na    c       0.000000      0.000530     -0.000885      0.000000
    10  Na    c      -0.000496      0.000000      0.000000      0.000000
    11  O     c       0.000000      0.000000      0.000032      0.000000
    12  O     c       0.000079      0.000000     -0.000077      0.000000
    13  Cl    c       0.001278     -0.000142      0.000000      0.000000
    14  Na    c       0.000327      0.000000      0.000372      0.000000
    15  Na    c      -0.000855      0.000000     -0.000033      0.000000
    16  Na    c       0.000056      0.000000     -0.000018      0.000000
    17  O     c       0.000000      0.000001     -0.000030      0.000000
    18  Cl    c       0.000914      0.000118      0.000090      0.000000
    19  Na    c      -0.000136     -0.000312     -0.000590      0.000000
    20  Na    c       0.000291      0.000259     -0.000224      0.000000
    21  Na    c       0.000000      0.000000      0.000069      0.000000
    22  Na    c       0.000000      0.000344      0.000000      0.000000
    23  O     c       0.000000     -0.000021     -0.000017      0.000000
    24  O     c       0.000081      0.000000      0.000031      0.000000
    25  Cl    c       0.000095      0.000000      0.000432      0.000000
    26  Cl    c       0.000173      0.000000      0.000000      0.000000
    27  Na    c       0.000072      0.000306     -0.000277      0.000000
    28  Na    c       0.000043      0.000000      0.000286      0.000000
    29  O     s       0.000000      0.000000      0.001814      0.000000
    30  Cl    s      -0.009013      0.000000      0.000000      0.000000
    31  O     s       0.000000     -0.002091      0.000446      0.000000
    32  Cl    s      -0.002450      0.000000     -0.001679      0.000000
    33  O     s       0.000000      0.000000     -0.000201      0.000000
    34  O     s      -0.000707      0.000000      0.000789      0.000000
    35  Cl    s      -0.000906      0.000503      0.000000      0.000000
    36  O     s       0.000000     -0.000285     -0.000150      0.000000
    37  Cl    s      -0.000793     -0.000124      0.000039      0.000000
    38  O     s       0.000000     -0.000713      0.000406      0.000000
    39  O     s      -0.000976      0.000000     -0.000331      0.000000
    40  Cl    s      -0.000132      0.000000     -0.000661      0.000000
    41  Cl    s      -0.000417      0.000000      0.000000      0.000000

  Comparison of initial and final region 1 :

  Parameter   Initial value   Final value   Difference    Units      Percent
      1 x          2.236680      2.236680     0.000000    Cartesian    0.00
      1 y          2.236680      2.236680     0.000000    Cartesian    0.00
      1 z         -2.236680     -2.349659    -0.112978    Cartesian    5.05
      2 x          4.473361      4.579804     0.106443    Cartesian    2.38
      2 y          4.473361      4.579804     0.106443    Cartesian    2.38
      2 z          0.000000      0.000000     0.000000    Cartesian    0.00
      3 x          4.473361      4.372145    -0.101216    Cartesian   -2.26
      3 y          2.236680      2.236680     0.000000    Cartesian    0.00
      3 z         -2.236680     -1.900573     0.336107    Cartesian  -15.03
      4 x          2.236680      2.236680     0.000000    Cartesian    0.00
      4 y          2.236680      2.236680     0.000000    Cartesian    0.00
      4 z          4.473361      4.467428    -0.005932    Cartesian   -0.13
      5 x          2.236680      2.236680     0.000000    Cartesian    0.00
      5 y          6.710041      6.907601     0.197560    Cartesian    2.94
      5 z          0.000000      0.000000     0.000000    Cartesian    0.00
      6 x          2.236680      2.236680     0.000000    Cartesian    0.00
      6 y          6.710041      6.678777    -0.031264    Cartesian   -0.47
      6 z         -2.236680     -2.216511     0.020170    Cartesian   -0.90
      7 x          4.473361      4.466289    -0.007072    Cartesian   -0.16
      7 y          6.710041      6.665832    -0.044210    Cartesian   -0.66
      7 z         -2.236680     -2.238049    -0.001369    Cartesian    0.06
      8 x          4.473361      4.554228     0.080867    Cartesian    1.81
      8 y          4.473361      4.554228     0.080867    Cartesian    1.81
      8 z          4.473361      4.571330     0.097969    Cartesian    2.19
      9 x          2.236680      2.236680     0.000000    Cartesian    0.00
      9 y          6.710041      6.477348    -0.232693    Cartesian   -3.47
      9 z          4.473361      4.446871    -0.026490    Cartesian   -0.59
     10 x          6.710041      6.690273    -0.019769    Cartesian   -0.29
     10 y          6.710041      6.690273    -0.019769    Cartesian   -0.29
     10 z          0.000000      0.000000     0.000000    Cartesian    0.00
     11 x          2.236680      2.236680     0.000000    Cartesian    0.00
     11 y          2.236680      2.236680     0.000000    Cartesian    0.00
     11 z          6.710041      6.745983     0.035942    Cartesian    0.54
     12 x          6.710041      6.712404     0.002363    Cartesian    0.04
     12 y          6.710041      6.712404     0.002363    Cartesian    0.04
     12 z         -2.236680     -2.242564    -0.005884    Cartesian    0.26
     13 x          4.473361      4.474882     0.001521    Cartesian    0.03
     13 y          8.946722      8.970677     0.023955    Cartesian    0.27
     13 z          0.000000      0.000000     0.000000    Cartesian    0.00
     14 x          4.473361      4.461319    -0.012042    Cartesian   -0.27
     14 y          2.236680      2.236680     0.000000    Cartesian    0.00
     14 z          6.710041      6.758164     0.048123    Cartesian    0.72
     15 x          8.946722      8.920190    -0.026532    Cartesian   -0.30
     15 y          2.236680      2.236680     0.000000    Cartesian    0.00
     15 z         -2.236680     -2.378376    -0.141696    Cartesian    6.34
     16 x          6.710041      6.700196    -0.009845    Cartesian   -0.15
     16 y          6.710041      6.700196    -0.009845    Cartesian   -0.15
     16 z          4.473361      4.477500     0.004139    Cartesian    0.09
     17 x          2.236680      2.236680     0.000000    Cartesian    0.00
     17 y          6.710041      6.686535    -0.023506    Cartesian   -0.35
     17 z          6.710041      6.706319    -0.003723    Cartesian   -0.06
     18 x          4.473361      4.475974     0.002613    Cartesian    0.06
     18 y          8.946722      8.977096     0.030374    Cartesian    0.34
     18 z          4.473361      4.474523     0.001162    Cartesian    0.03
     19 x          4.473361      4.475190     0.001830    Cartesian    0.04
     19 y          6.710041      6.700603    -0.009438    Cartesian   -0.14
     19 z          6.710041      6.681950    -0.028092    Cartesian   -0.42
     20 x          8.946722      8.939761    -0.006961    Cartesian   -0.08
     20 y          6.710041      6.698648    -0.011393    Cartesian   -0.17
     20 z         -2.236680     -2.240220    -0.003540    Cartesian    0.16
     21 x          2.236680      2.236680     0.000000    Cartesian    0.00
     21 y          2.236680      2.236680     0.000000    Cartesian    0.00
     21 z          8.946722      8.970421     0.023699    Cartesian    0.26
     22 x          2.236680      2.236680     0.000000    Cartesian    0.00
     22 y         11.183402     11.094467    -0.088935    Cartesian   -0.80
     22 z          0.000000      0.000000     0.000000    Cartesian    0.00
     23 x          2.236680      2.236680     0.000000    Cartesian    0.00
     23 y         11.183402     11.171701    -0.011701    Cartesian   -0.10
     23 z         -2.236680     -2.249158    -0.012478    Cartesian    0.56
     24 x          6.710041      6.724018     0.013977    Cartesian    0.21
     24 y          6.710041      6.724018     0.013977    Cartesian    0.21
     24 z          6.710041      6.723060     0.013019    Cartesian    0.19
     25 x          4.473361      4.469414    -0.003947    Cartesian   -0.09
     25 y          4.473361      4.469414    -0.003947    Cartesian   -0.09
     25 z          8.946722      8.991810     0.045088    Cartesian    0.50
     26 x          8.946722      8.975462     0.028740    Cartesian    0.32
     26 y          8.946722      8.975462     0.028740    Cartesian    0.32
     26 z          0.000000      0.000000     0.000000    Cartesian    0.00
     27 x          4.473361      4.468880    -0.004480    Cartesian   -0.10
     27 y         11.183402     11.159031    -0.024371    Cartesian   -0.22
     27 z         -2.236680     -2.223523     0.013157    Cartesian   -0.59
     28 x          8.946722      8.921336    -0.025386    Cartesian   -0.28
     28 y          2.236680      2.236680     0.000000    Cartesian    0.00
     28 z          6.710041      6.644579    -0.065462    Cartesian   -0.98
     29 x          2.236680      2.236680     0.000000    Cartesian    0.00
     29 y          2.236680      2.236680     0.000000    Cartesian    0.00
     29 z         -2.236680     -2.349825    -0.113144    Cartesian    5.06
     30 x          4.473361      4.583419     0.110058    Cartesian    2.46
     30 y          4.473361      4.583419     0.110058    Cartesian    2.46
     30 z          0.000000      0.000000     0.000000    Cartesian    0.00
     31 x          2.236680      2.236680     0.000000    Cartesian    0.00
     31 y          6.710041      6.678854    -0.031187    Cartesian   -0.46
     31 z         -2.236680     -2.216493     0.020187    Cartesian   -0.90
     32 x          4.473361      4.565944     0.092583    Cartesian    2.07
     32 y          4.473361      4.565944     0.092583    Cartesian    2.07
     32 z          4.473361      4.583938     0.110578    Cartesian    2.47
     33 x          2.236680      2.236680     0.000000    Cartesian    0.00
     33 y          2.236680      2.236680     0.000000    Cartesian    0.00
     33 z          6.710041      6.746046     0.036005    Cartesian    0.54
     34 x          6.710041      6.712408     0.002366    Cartesian    0.04
     34 y          6.710041      6.712408     0.002366    Cartesian    0.04
     34 z         -2.236680     -2.242570    -0.005889    Cartesian    0.26
     35 x          4.473361      4.473471     0.000110    Cartesian    0.00
     35 y          8.946722      8.973360     0.026639    Cartesian    0.30
     35 z          0.000000      0.000000     0.000000    Cartesian    0.00
     36 x          2.236680      2.236680     0.000000    Cartesian    0.00
     36 y          6.710041      6.686501    -0.023541    Cartesian   -0.35
     36 z          6.710041      6.706339    -0.003703    Cartesian   -0.06
     37 x          4.473361      4.475249     0.001888    Cartesian    0.04
     37 y          8.946722      8.982237     0.035515    Cartesian    0.40
     37 z          4.473361      4.473783     0.000422    Cartesian    0.01
     38 x          2.236680      2.236680     0.000000    Cartesian    0.00
     38 y         11.183402     11.171693    -0.011709    Cartesian   -0.10
     38 z         -2.236680     -2.249196    -0.012516    Cartesian    0.56
     39 x          6.710041      6.724033     0.013991    Cartesian    0.21
     39 y          6.710041      6.724033     0.013991    Cartesian    0.21
     39 z          6.710041      6.723065     0.013023    Cartesian    0.19
     40 x          4.473361      4.468016    -0.005345    Cartesian   -0.12
     40 y          4.473361      4.468016    -0.005345    Cartesian   -0.12
     40 z          8.946722      8.995252     0.048530    Cartesian    0.54
     41 x          8.946722      8.978972     0.032250    Cartesian    0.36
     41 y          8.946722      8.978972     0.032250    Cartesian    0.36
     41 z          0.000000      0.000000     0.000000    Cartesian    0.00

  Time to end of optimisation  =       11.3243 seconds

  Timing analysis for GULP :

  Task / Subroutine                                          Time (Seconds)
  Calculation of reciprocal space energy and derivatives          0.0002
  Calculation of reciprocal space energy using symmetry           0.0003
  Calculation of real space energy and derivatives                0.0012
  Calculation of real space energy using symmetry                 0.0028
  Calculation for region 1 energy and derivatives (2-b)           1.9576
  Calculation for region 2a energy                                9.2936
  Calculation for region 2b energy                                0.0001
  Calculation and manipulation of Hessian matrix                  0.0124
  Calculation of matrix inversion                                 0.0005
  Symmetry generation of equivalent positions                     0.0015

  Dump file written as Na3OCl.grs

  Job Finished at 14:26.18  3rd January    2021