  Job Started  at 14:26.06  3rd January    2021

  Number of CPUs =     1

  Total number of configurations input =      1

*  Input for Configuration =   1                                               *

  Formula = ClONa3

  Number of irreducible atoms/shells =       5

  Total number atoms/shells =       7

  Dimensionality = 3               :  Bulk

  Symmetry :

  Crystal family                   :  Cubic
  Crystal class  (Groth - 1921)    :  Cubic Hexakisoctahedral

  Space group (centrosymmetric)    :  P M 3 M

  Patterson group                  :  P m -3 m

  Cartesian lattice vectors (Angstroms) :

        4.504000    0.000000    0.000000
        0.000000    4.504000    0.000000
        0.000000    0.000000    4.504000

  Cell parameters (Angstroms/Degrees):

  a =       4.5040    alpha =  90.0000
  b =       4.5040    beta  =  90.0000
  c =       4.5040    gamma =  90.0000

  Initial cell volume =          91.368216 Angs**3

  Temperature of configuration =   0.00     K

  Pressure of configuration =         0.000 GPa

  Fractional coordinates of asymmetric unit :

   No.  Atomic       x           y          z         Charge      Occupancy
        Label      (Frac)      (Frac)     (Frac)        (e)         (Frac)
      1 Cl    c    0.000000    0.000000    0.000000     1.48500    1.000000
      2 O     c    0.500000    0.500000    0.500000     0.18300    1.000000
      3 Na    c    0.500000    0.500000    0.000000     1.00000    1.000000
      4 Cl    s    0.000000    0.000000    0.000000    -2.48500    1.000000
      5 O     s    0.500000    0.500000    0.500000    -2.18300    1.000000

  Constraints :

  Constraint no.      Unconstrained     Constrained    Coefficient    Offset
                         Variable         Variable
           1              Strain 1        Strain 2       1.00000      0.0000
           2              Strain 1        Strain 3       1.00000      0.0000

*  General input information                                                   *

  Species output for all configurations :

  Species    Type    Atomic    Atomic    Charge       Radii (Angs)     Library
                     Number     Mass       (e)     Cova   Ionic  VDW   Symbol
    Na       Core       11      22.99   1.000000   0.970  0.000  2.300
    O        Core        8      16.00   0.183000   0.730  0.000  1.360
    O        Shell       8       0.00  -2.183000   0.730  0.000  1.360
    Cl       Core       17      35.45   1.485000   0.990  0.000  1.650
    Cl       Shell      17       0.00  -2.485000   0.990  0.000  1.650
    Mg       Core       12      24.31   0.415000   1.100  0.000  0.000
    Mg       Shell      12       0.00   1.585000   1.100  0.000  0.000
    Ca       Core       20      40.08  -1.135000   0.990  0.000  0.000
    Ca       Shell      20       0.00   3.135000   0.990  0.000  0.000
    Sr       Core       38      87.62  -1.251000   1.120  0.000  0.000
    Sr       Shell      38       0.00   3.251000   1.120  0.000  0.000
    Ba       Core       56     137.33  -7.203000   1.340  0.000  0.000
    Ba       Shell      56       0.00   9.203000   1.340  0.000  0.000

  Lattice summation method               =    Ewald          (3-D)
                                         =    Parry          (2-D)
                                         =    Saunders et al (1-D)
  Accuracy factor for lattice sums       =   12.000

  Analytic derivatives to be used

  Time limit = Infinity

  Maximum range for interatomic potentials =    100000.000000 Angstroms

  General interatomic potentials :

Atom  Types   Potential      Parameter       Value         Units   Cutoffs(Ang)
  1     2                                                            Min /  Max
O    c O    s Spring (c-s)  Spring k 2       593.71600    eV*Ang^-2 0.000  0.800
                            Spring k 4       0.0000000    eV*Ang^-4
Cl   c Cl   s Spring (c-s)  Spring k 2       29.380000    eV*Ang^-2 0.000  0.800
                            Spring k 4       0.0000000    eV*Ang^-4
Mg   c Mg   s Spring (c-s)  Spring k 2       361.60000    eV*Ang^-2 0.000  0.800
                            Spring k 4       0.0000000    eV*Ang^-4
Ca   c Ca   s Spring (c-s)  Spring k 2       110.20000    eV*Ang^-2 0.000  0.800
                            Spring k 4       0.0000000    eV*Ang^-4
Sr   c Sr   s Spring (c-s)  Spring k 2       71.700000    eV*Ang^-2 0.000  0.800
                            Spring k 4       0.0000000    eV*Ang^-4
Ba   c Ba   s Spring (c-s)  Spring k 2       495.20000    eV*Ang^-2 0.000  0.800
                            Spring k 4       0.0000000    eV*Ang^-4
Na   c Na   c Buckingham    Buckingham A     1788.1900    eV        0.000 12.000
                            Buckingham rho  0.15900000    Ang
                            Buckingham C     0.0000000    eV*Ang^6
Na   c O    s Buckingham    Buckingham A     369.22000    eV        0.000 12.000
                            Buckingham rho  0.37600000    Ang
                            Buckingham C     0.0000000    eV*Ang^6
Na   c Cl   s Buckingham    Buckingham A     1775.1200    eV        0.000 12.000
                            Buckingham rho  0.30000000    Ang
                            Buckingham C     0.0000000    eV*Ang^6
O    s O    s Buckingham    Buckingham A     22764.300    eV        0.000 12.000
                            Buckingham rho  0.14900000    Ang
                            Buckingham C     13.190000    eV*Ang^6
O    s Cl   s Buckingham    Buckingham A     8286.9100    eV        0.000 12.000
                            Buckingham rho  0.25900000    Ang
                            Buckingham C     62.200000    eV*Ang^6
Cl   s Cl   s Buckingham    Buckingham A     1227.2000    eV        0.000 12.000
                            Buckingham rho  0.32100000    Ang
                            Buckingham C     14.530000    eV*Ang^6
O    s Mg   s Buckingham    Buckingham A     1428.5000    eV        0.000 12.000
                            Buckingham rho  0.29450000    Ang
                            Buckingham C     0.0000000    eV*Ang^6
Mg   s Cl   s Buckingham    Buckingham A     4914.5400    eV        0.000 12.000
                            Buckingham rho  0.25700000    Ang
                            Buckingham C     0.0000000    eV*Ang^6
O    s Ca   s Buckingham    Buckingham A     1090.4000    eV        0.000 12.000
                            Buckingham rho  0.34370000    Ang
                            Buckingham C     0.0000000    eV*Ang^6
Cl   s Ca   s Buckingham    Buckingham A     2302.0000    eV        0.000 12.000
                            Buckingham rho  0.34020000    Ang
                            Buckingham C     0.0000000    eV*Ang^6
O    s Sr   s Buckingham    Buckingham A     959.10000    eV        0.000 12.000
                            Buckingham rho  0.37210000    Ang
                            Buckingham C     0.0000000    eV*Ang^6
Cl   s Sr   s Buckingham    Buckingham A     2191.0900    eV        0.000 12.000
                            Buckingham rho  0.34570000    Ang
                            Buckingham C     0.0000000    eV*Ang^6
O    s Ba   s Buckingham    Buckingham A     905.70000    eV        0.000 12.000
                            Buckingham rho  0.39760000    Ang
                            Buckingham C     0.0000000    eV*Ang^6
Cl   s Ba   s Buckingham    Buckingham A     2704.5500    eV        0.000 12.000
                            Buckingham rho  0.35280000    Ang
                            Buckingham C     0.0000000    eV*Ang^6

*  Output for configuration   1                                                *

  Components of energy :

  Interatomic potentials     =           5.94260302 eV
  Monopole - monopole (real) =         -10.03624526 eV
  Monopole - monopole (recip)=         -29.53581274 eV
  Monopole - monopole (total)=         -39.57205800 eV
  Total lattice energy       =         -33.62945497 eV
  Total lattice energy       =           -3244.7283 kJ/(mole unit cells)

  Number of variables =        1

  Maximum number of calculations  =          1000
  Maximum Hessian update interval =            10
  Maximum step size               =   1.000000000
  Maximum parameter tolerance     =   0.000010000
  Maximum function  tolerance     =   0.000010000
  Maximum gradient  tolerance     =   0.001000000
  Maximum gradient  component     =   0.010000000

  Symmetry constrained optimisation

  Symmetry used for second derivatives

  Cell parameters to be optimised using strains

  Newton-Raphson optimiser to be used

  BFGS hessian update to be used

  Lower half triangular hessian to be used

  Start of bulk optimisation :

  ** Hessian calculated **

  **** Optimisation achieved ****

  Final energy =     -33.63378233 eV
  Final Gnorm  =       0.00011077

  Components of energy :

  Interatomic potentials     =           6.20931397 eV
  Monopole - monopole (real) =         -10.10498585 eV
  Monopole - monopole (recip)=         -29.73811044 eV
  Monopole - monopole (total)=         -39.84309629 eV
  Total lattice energy       =         -33.63378233 eV
  Total lattice energy       =           -3245.1459 kJ/(mole unit cells)

  Final asymmetric unit coordinates :

   No.  Atomic        x           y           z         Radius
        Label       (Frac)      (Frac)      (Frac)       (Angs)
     1  Cl    c     0.000000    0.000000    0.000000    0.000000
     2  O     c     0.500000    0.500000    0.500000    0.000000
     3  Na    c     0.500000    0.500000    0.000000    0.000000
     4  Cl    s     0.000000    0.000000    0.000000    0.000000
     5  O     s     0.500000    0.500000    0.500000    0.000000

  Final Cartesian lattice vectors (Angstroms) :

        4.473361    0.000000    0.000000
        0.000000    4.473361    0.000000
        0.000000    0.000000    4.473361

  Final cell parameters and derivatives :

       a            4.473361 Angstrom     dE/de1(xx)     0.000111 eV/strain
       b            4.473361 Angstrom     dE/de2(yy)     0.000000 eV/strain
       c            4.473361 Angstrom     dE/de3(zz)     0.000000 eV/strain
       alpha       90.000000 Degrees      dE/de4(yz)     0.000000 eV/strain
       beta        90.000000 Degrees      dE/de5(xz)     0.000000 eV/strain
       gamma       90.000000 Degrees      dE/de6(xy)     0.000000 eV/strain

  Primitive cell volume =            89.516236 Angs**3

  Density of cell =      2.233844 g/cm**3

  Non-primitive cell volume =            89.516236 Angs**3

  Final internal derivatives :

   No.  Atomic          a             b             c           Radius
        Label          (eV)          (eV)          (eV)        (eV/Angs)
      1 Cl    c       0.000000      0.000000      0.000000      0.000000
      2 O     c       0.000000      0.000000      0.000000      0.000000
      3 Na    c       0.000000      0.000000      0.000000      0.000000
      4 Cl    s       0.000000      0.000000      0.000000      0.000000
      5 O     s       0.000000      0.000000      0.000000      0.000000
  Maximum abs         0.000000      0.000000      0.000000      0.000000

  Comparison of initial and final structures :

[...]
    50  O     s     4.477431    8.951560   -2.233268   -2.183000
    51  Cl    s     6.731745    6.731745    4.484313   -2.485000

  Final derivatives for region 1 :

   No.  Atomic          x             y             z            Radius
        Label       (eV/Angs)     (eV/Angs)     (eV/Angs)       (eV/Angs)
     1  O     c       0.000000      0.000000      0.002193      0.000000
     2  Cl    c      -0.003998      0.000000      0.000000      0.000000
     3  Na    c      -0.000022      0.000000      0.000782      0.000000
     4  Na    c       0.000000      0.000000      0.000223      0.000000
     5  Na    c       0.000000      0.000526      0.000000      0.000000
     6  O     c       0.000000      0.003995     -0.005399      0.000000
     7  Na    c      -0.001043     -0.000872     -0.000035      0.000000
     8  Cl    c      -0.002605      0.000000     -0.001309      0.000000
     9  Na    c       0.000000     -0.000551      0.000534      0.000000
    10  Na    c      -0.000847      0.000000      0.000000      0.000000
    11  O     c       0.000000      0.000000     -0.001165      0.000000
    12  O     c       0.003560      0.000000      0.000670      0.000000
    13  Cl    c      -0.000947     -0.001695      0.000000      0.000000
    14  Na    c      -0.001081      0.000000     -0.000288      0.000000
    15  Na    c      -0.001271      0.000000     -0.003111      0.000000
    16  Na    c       0.000376      0.000000     -0.000330      0.000000
    17  O     c       0.000000      0.006113      0.004926      0.000000
    18  Cl    c      -0.000385     -0.002305      0.001899      0.000000
    19  Na    c      -0.000048     -0.000902     -0.000645      0.000000
    20  Na    c      -0.001511      0.000158      0.002410      0.000000
    21  Na    c       0.000000      0.000000      0.000005      0.000000
    22  Na    c       0.000000     -0.000347      0.000000      0.000000
    23  O     c       0.000000      0.003304      0.005617      0.000000
    24  O     c      -0.003062      0.000000      0.000780      0.000000
    25  Cl    c       0.000606      0.000000     -0.001503      0.000000
    26  Cl    c      -0.000805      0.000000      0.000000      0.000000
    27  Na    c      -0.000078      0.000602      0.000245      0.000000
    28  Na    c      -0.000263      0.000000     -0.000364      0.000000
    29  Na    c       0.000000     -0.000092     -0.000838      0.000000
    30  Na    c       0.000000      0.001036      0.000242      0.000000
    31  Na    c       0.000272     -0.000057      0.000000      0.000000
    32  O     c      -0.000251     -0.000124     -0.005783      0.000000
    33  Cl    c      -0.000120      0.000000     -0.000448      0.000000
    34  Na    c       0.000287     -0.000597      0.000562      0.000000
    35  Na    c       0.000102     -0.000224     -0.000898      0.000000
    36  Na    c      -0.000455      0.000000     -0.000350      0.000000
    37  O     s       0.000000      0.000000      0.003619      0.000000
    38  Cl    s      -0.005066      0.000000      0.000000      0.000000
    39  O     s       0.000000      0.001106     -0.002719      0.000000
    40  Cl    s      -0.007666      0.000000     -0.005197      0.000000
    41  O     s       0.000000      0.000000     -0.001805      0.000000
    42  O     s       0.001660      0.000000     -0.000627      0.000000
    43  Cl    s      -0.002796     -0.001149      0.000000      0.000000
    44  O     s       0.000000      0.006443      0.004265      0.000000
    45  Cl    s      -0.000278     -0.003079     -0.002675      0.000000
    46  O     s       0.000000      0.000018      0.006779      0.000000
    47  O     s      -0.000720      0.000000     -0.000292      0.000000
    48  Cl    s       0.001553      0.000000     -0.000130      0.000000
    49  Cl    s      -0.000785      0.000000      0.000000      0.000000
    50  O     s      -0.002780     -0.002213     -0.006036      0.000000
    51  Cl    s      -0.002095      0.000000     -0.000590      0.000000

  Comparison of initial and final region 1 :

  Parameter   Initial value   Final value   Difference    Units      Percent
      1 x          2.236680      2.236680     0.000000    Cartesian    0.00
      1 y          2.236680      2.236680     0.000000    Cartesian    0.00
      1 z         -2.236680     -2.343607    -0.106926    Cartesian    4.78
      2 x          4.473361      4.581703     0.108342    Cartesian    2.42
      2 y          4.473361      4.581703     0.108342    Cartesian    2.42
      2 z          0.000000      0.000000     0.000000    Cartesian    0.00
      3 x          4.473361      4.373005    -0.100356    Cartesian   -2.24
      3 y          2.236680      2.236680     0.000000    Cartesian    0.00
      3 z         -2.236680     -1.893165     0.343515    Cartesian  -15.36
      4 x          2.236680      2.236680     0.000000    Cartesian    0.00
      4 y          2.236680      2.236680     0.000000    Cartesian    0.00
      4 z          4.473361      4.465369    -0.007992    Cartesian   -0.18
      5 x          2.236680      2.236680     0.000000    Cartesian    0.00
      5 y          6.710041      6.925891     0.215849    Cartesian    3.22
      5 z          0.000000      0.000000     0.000000    Cartesian    0.00
      6 x          2.236680      2.236680     0.000000    Cartesian    0.00
      6 y          6.710041      6.683355    -0.026687    Cartesian   -0.40
      6 z         -2.236680     -2.215347     0.021333    Cartesian   -0.95
      7 x          4.473361      4.466962    -0.006398    Cartesian   -0.14
      7 y          6.710041      6.668535    -0.041506    Cartesian   -0.62
      7 z         -2.236680     -2.235914     0.000767    Cartesian   -0.03
      8 x          4.473361      4.552839     0.079478    Cartesian    1.78
      8 y          4.473361      4.552839     0.079478    Cartesian    1.78
      8 z          4.473361      4.560091     0.086730    Cartesian    1.94
      9 x          2.236680      2.236680     0.000000    Cartesian    0.00
      9 y          6.710041      6.459159    -0.250883    Cartesian   -3.74
      9 z          4.473361      4.440617    -0.032744    Cartesian   -0.73
     10 x          6.710041      6.690401    -0.019640    Cartesian   -0.29
     10 y          6.710041      6.690401    -0.019640    Cartesian   -0.29
     10 z          0.000000      0.000000     0.000000    Cartesian    0.00
     11 x          2.236680      2.236680     0.000000    Cartesian    0.00
     11 y          2.236680      2.236680     0.000000    Cartesian    0.00
     11 z          6.710041      6.747937     0.037895    Cartesian    0.56
     12 x          6.710041      6.715437     0.005396    Cartesian    0.08
     12 y          6.710041      6.715437     0.005396    Cartesian    0.08
     12 z         -2.236680     -2.240952    -0.004272    Cartesian    0.19
     13 x          4.473361      4.483113     0.009752    Cartesian    0.22
     13 y          8.946722      8.974735     0.028013    Cartesian    0.31
     13 z          0.000000      0.000000     0.000000    Cartesian    0.00
     14 x          4.473361      4.461986    -0.011375    Cartesian   -0.25
     14 y          2.236680      2.236680     0.000000    Cartesian    0.00
     14 z          6.710041      6.770094     0.060053    Cartesian    0.89
     15 x          8.946722      8.925568    -0.021154    Cartesian   -0.24
     15 y          2.236680      2.236680     0.000000    Cartesian    0.00
     15 z         -2.236680     -2.400856    -0.164176    Cartesian    7.34
     16 x          6.710041      6.703328    -0.006714    Cartesian   -0.10
     16 y          6.710041      6.703328    -0.006714    Cartesian   -0.10
     16 z          4.473361      4.471612    -0.001749    Cartesian   -0.04
     17 x          2.236680      2.236680     0.000000    Cartesian    0.00
     17 y          6.710041      6.689945    -0.020096    Cartesian   -0.30
     17 z          6.710041      6.695291    -0.014750    Cartesian   -0.22
     18 x          4.473361      4.483706     0.010345    Cartesian    0.23
     18 y          8.946722      8.980502     0.033780    Cartesian    0.38
     18 z          4.473361      4.470668    -0.002693    Cartesian   -0.06
     19 x          4.473361      4.473678     0.000317    Cartesian    0.01
     19 y          6.710041      6.699957    -0.010085    Cartesian   -0.15
     19 z          6.710041      6.667009    -0.043032    Cartesian   -0.64
     20 x          8.946722      8.942530    -0.004192    Cartesian   -0.05
     20 y          6.710041      6.699755    -0.010287    Cartesian   -0.15
     20 z         -2.236680     -2.226800     0.009880    Cartesian   -0.44
     21 x          2.236680      2.236680     0.000000    Cartesian    0.00
     21 y          2.236680      2.236680     0.000000    Cartesian    0.00
     21 z          8.946722      8.972465     0.025743    Cartesian    0.29
     22 x          2.236680      2.236680     0.000000    Cartesian    0.00
     22 y         11.183402     11.089158    -0.094245    Cartesian   -0.84
     22 z          0.000000      0.000000     0.000000    Cartesian    0.00
     23 x          2.236680      2.236680     0.000000    Cartesian    0.00
     23 y         11.183402     11.175277    -0.008125    Cartesian   -0.07
     23 z         -2.236680     -2.250979    -0.014298    Cartesian    0.64
     24 x          6.710041      6.720077     0.010036    Cartesian    0.15
     24 y          6.710041      6.720077     0.010036    Cartesian    0.15
     24 z          6.710041      6.713265     0.003224    Cartesian    0.05
     25 x          4.473361      4.471229    -0.002131    Cartesian   -0.05
     25 y          4.473361      4.471229    -0.002131    Cartesian   -0.05
     25 z          8.946722      8.978864     0.032142    Cartesian    0.36
     26 x          8.946722      8.961888     0.015166    Cartesian    0.17
     26 y          8.946722      8.961888     0.015166    Cartesian    0.17
     26 z          0.000000      0.000000     0.000000    Cartesian    0.00
     27 x          4.473361      4.470779    -0.002582    Cartesian   -0.06
     27 y         11.183402     11.169369    -0.014034    Cartesian   -0.13
     27 z         -2.236680     -2.216397     0.020284    Cartesian   -0.91
     28 x          8.946722      8.926005    -0.020716    Cartesian   -0.23
     28 y          2.236680      2.236680     0.000000    Cartesian    0.00
     28 z          6.710041      6.624286    -0.085756    Cartesian   -1.28
     29 x          2.236680      2.236680     0.000000    Cartesian    0.00
     29 y          6.710041      6.738900     0.028859    Cartesian    0.43
     29 z          8.946722      8.932088    -0.014634    Cartesian   -0.16
     30 x          2.236680      2.236680     0.000000    Cartesian    0.00
     30 y         11.183402     11.216671     0.033269    Cartesian    0.30
     30 z          4.473361      4.476325     0.002964    Cartesian    0.07
     31 x          6.710041      6.715354     0.005313    Cartesian    0.08
     31 y         11.183402     11.176417    -0.006985    Cartesian   -0.06
     31 z          0.000000      0.000000     0.000000    Cartesian    0.00
     32 x          6.710041      6.714106     0.004065    Cartesian    0.06
     32 y         11.183402     11.188238     0.004836    Cartesian    0.04
     32 z         -2.236680     -2.233274     0.003407    Cartesian   -0.15
     33 x          8.946722      8.966225     0.019503    Cartesian    0.22
     33 y          8.946722      8.966225     0.019503    Cartesian    0.22
     33 z          4.473361      4.483033     0.009673    Cartesian    0.22
     34 x          8.946722      8.943894    -0.002828    Cartesian   -0.03
     34 y          6.710041      6.707493    -0.002549    Cartesian   -0.04
     34 z          6.710041      6.711930     0.001889    Cartesian    0.03
     35 x          6.710041      6.695476    -0.014565    Cartesian   -0.22
     35 y         11.183402     11.157176    -0.026227    Cartesian   -0.23
     35 z          4.473361      4.468071    -0.005290    Cartesian   -0.12
     36 x          6.710041      6.691897    -0.018144    Cartesian   -0.27
     36 y          6.710041      6.691897    -0.018144    Cartesian   -0.27
     36 z          8.946722      8.937074    -0.009648    Cartesian   -0.11
     37 x          2.236680      2.236680     0.000000    Cartesian    0.00
     37 y          2.236680      2.236680     0.000000    Cartesian    0.00
     37 z         -2.236680     -2.343769    -0.107089    Cartesian    4.79
     38 x          4.473361      4.585294     0.111933    Cartesian    2.50
     38 y          4.473361      4.585294     0.111933    Cartesian    2.50
     38 z          0.000000      0.000000     0.000000    Cartesian    0.00
     39 x          2.236680      2.236680     0.000000    Cartesian    0.00
     39 y          6.710041      6.683429    -0.026612    Cartesian   -0.40
     39 z         -2.236680     -2.215334     0.021346    Cartesian   -0.95
     40 x          4.473361      4.564704     0.091343    Cartesian    2.04
     40 y          4.473361      4.564704     0.091343    Cartesian    2.04
     40 z          4.473361      4.572256     0.098895    Cartesian    2.21
     41 x          2.236680      2.236680     0.000000    Cartesian    0.00
     41 y          2.236680      2.236680     0.000000    Cartesian    0.00
     41 z          6.710041      6.748012     0.037971    Cartesian    0.57
     42 x          6.710041      6.715442     0.005401    Cartesian    0.08
     42 y          6.710041      6.715442     0.005401    Cartesian    0.08
     42 z         -2.236680     -2.240956    -0.004276    Cartesian    0.19
     43 x          4.473361      4.482989     0.009628    Cartesian    0.22
     43 y          8.946722      8.977555     0.030834    Cartesian    0.34
     43 z          0.000000      0.000000     0.000000    Cartesian    0.00
     44 x          2.236680      2.236680     0.000000    Cartesian    0.00
     44 y          6.710041      6.689910    -0.020131    Cartesian   -0.30
     44 z          6.710041      6.695312    -0.014729    Cartesian   -0.22
     45 x          4.473361      4.483993     0.010632    Cartesian    0.24
     45 y          8.946722      8.985847     0.039126    Cartesian    0.44
     45 z          4.473361      4.470097    -0.003264    Cartesian   -0.07
     46 x          2.236680      2.236680     0.000000    Cartesian    0.00
     46 y         11.183402     11.175278    -0.008124    Cartesian   -0.07
     46 z         -2.236680     -2.251019    -0.014338    Cartesian    0.64
     47 x          6.710041      6.720088     0.010047    Cartesian    0.15
     47 y          6.710041      6.720088     0.010047    Cartesian    0.15
     47 z          6.710041      6.713268     0.003226    Cartesian    0.05
     48 x          4.473361      4.470181    -0.003180    Cartesian   -0.07
     48 y          4.473361      4.470181    -0.003180    Cartesian   -0.07
     48 z          8.946722      8.981010     0.034289    Cartesian    0.38
     49 x          8.946722      8.963751     0.017029    Cartesian    0.19
     49 y          8.946722      8.963751     0.017029    Cartesian    0.19
     49 z          0.000000      0.000000     0.000000    Cartesian    0.00
     50 x          6.710041      6.714112     0.004070    Cartesian    0.06
     50 y         11.183402     11.188241     0.004838    Cartesian    0.04
     50 z         -2.236680     -2.233268     0.003412    Cartesian   -0.15
     51 x          8.946722      8.968426     0.021704    Cartesian    0.24
     51 y          8.946722      8.968426     0.021704    Cartesian    0.24
     51 z          4.473361      4.484313     0.010952    Cartesian    0.24

  Time to end of optimisation  =       21.5143 seconds

  Timing analysis for GULP :

  Task / Subroutine                                          Time (Seconds)
  Calculation of reciprocal space energy and derivatives          0.0005
  Calculation of reciprocal space energy using symmetry           0.0009
  Calculation of real space energy and derivatives                0.0026
  Calculation of real space energy using symmetry                 0.0089
  Calculation for region 1 energy and derivatives (2-b)           4.1939
  Calculation for region 2a energy                               17.1733
  Calculation for region 2b energy                                0.0001
  Calculation and manipulation of Hessian matrix                  0.0346
  Calculation of matrix inversion                                 0.0017
  Symmetry generation of equivalent positions                     0.0068

  Dump file written as Na3OCl.grs

  Job Finished at 14:26.28  3rd January    2021