  Job Started  at 14:10.28  3rd December   2020

  Number of CPUs =     1

  Total number of configurations input =      1

*  Input for Configuration =   1                                               *

  Formula = SrO

  Number of irreducible atoms/shells =       4

  Total number atoms/shells =       4

  Dimensionality = 3               :  Bulk

  Symmetry :

  Crystal family                   :  Cubic
  Crystal class  (Groth - 1921)    :  Cubic Hexakisoctahedral

  Space group (centrosymmetric)    :  F M 3 M

  Patterson group                  :  F m -3 m

  Cartesian lattice vectors (Angstroms) :

        0.000000    2.603076    2.603076
        2.603076    0.000000    2.603076
        2.603076    2.603076    0.000000

  Primitive cell parameters :            Full cell parameters :

  a =   3.6813    alpha =  60.0000       a =   5.2062    alpha =  90.0000
  b =   3.6813    beta  =  60.0000       b =   5.2062    beta  =  90.0000
  c =   3.6813    gamma =  60.0000       c =   5.2062    gamma =  90.0000

  Initial volumes (Angstroms**3):

  Primitive cell =          35.276910    Full cell =         141.107641

  Temperature of configuration =   0.00     K

  Pressure of configuration =         0.000 GPa

  Fractional coordinates of asymmetric unit :

   No.  Atomic       x           y          z         Charge      Occupancy
        Label      (Frac)      (Frac)     (Frac)        (e)         (Frac)
      1 Sr    c    0.000000    0.000000    0.000000    -1.25100    1.000000
      2 O     c    0.500000    0.000000    0.000000     0.18300    1.000000
      3 Sr    s    0.000000    0.000000    0.000000     3.25100    1.000000
      4 O     s    0.500000    0.000000    0.000000    -2.18300    1.000000

  Constraints :

  Constraint no.      Unconstrained     Constrained    Coefficient    Offset
                         Variable         Variable
           1              Strain 1        Strain 2       1.00000      0.0000
           2              Strain 1        Strain 3       1.00000      0.0000

*  General input information                                                   *

  Species output for all configurations :

  Species    Type    Atomic    Atomic    Charge       Radii (Angs)     Library
                     Number     Mass       (e)     Cova   Ionic  VDW   Symbol
    Na       Core       11      22.99   1.000000   0.970  0.000  0.000
    O        Core        8      16.00   0.183000   0.730  0.000  1.360
    O        Shell       8       0.00  -2.183000   0.730  0.000  0.000
    Cl       Core       17      35.45   1.485000   0.990  0.000  0.000
    Cl       Shell      17       0.00  -2.485000   0.990  0.000  0.000
    Mg       Core       12      24.31   0.415000   1.100  0.000  0.000
    Mg       Shell      12       0.00   1.585000   1.100  0.000  0.000
    Ca       Core       20      40.08  -1.135000   0.990  0.000  0.000
    Ca       Shell      20       0.00   3.135000   0.990  0.000  0.000
    Sr       Core       38      87.62  -1.251000   1.120  0.000  1.670
    Sr       Shell      38       0.00   3.251000   1.120  0.000  0.000
    Ba       Core       56     137.33  -7.203000   1.340  0.000  0.000
    Ba       Shell      56       0.00   9.203000   1.340  0.000  0.000

  Lattice summation method               =    Ewald          (3-D)
                                         =    Parry          (2-D)
                                         =    Saunders et al (1-D)
  Accuracy factor for lattice sums       =   12.000

  Analytic derivatives to be used

  Time limit = Infinity

  Maximum range for interatomic potentials =    100000.000000 Angstroms

  General interatomic potentials :

Atom  Types   Potential      Parameter       Value         Units   Cutoffs(Ang)
  1     2                                                            Min /  Max
O    c O    s Spring (c-s)  Spring k 2       593.71600    eV*Ang^-2 0.000  0.800
                            Spring k 4       0.0000000    eV*Ang^-4
Cl   c Cl   s Spring (c-s)  Spring k 2       29.380000    eV*Ang^-2 0.000  0.800
                            Spring k 4       0.0000000    eV*Ang^-4
Mg   c Mg   s Spring (c-s)  Spring k 2       361.60000    eV*Ang^-2 0.000  0.800
                            Spring k 4       0.0000000    eV*Ang^-4
Ca   c Ca   s Spring (c-s)  Spring k 2       110.20000    eV*Ang^-2 0.000  0.800
                            Spring k 4       0.0000000    eV*Ang^-4
Sr   c Sr   s Spring (c-s)  Spring k 2       71.700000    eV*Ang^-2 0.000  0.800
                            Spring k 4       0.0000000    eV*Ang^-4
Ba   c Ba   s Spring (c-s)  Spring k 2       495.20000    eV*Ang^-2 0.000  0.800
                            Spring k 4       0.0000000    eV*Ang^-4
Na   c Na   c Buckingham    Buckingham A     1788.1900    eV        0.000 12.000
                            Buckingham rho  0.15900000    Ang
                            Buckingham C     0.0000000    eV*Ang^6
Na   c O    s Buckingham    Buckingham A     1226.8400    eV        0.000 12.000
                            Buckingham rho  0.30700000    Ang
                            Buckingham C     0.0000000    eV*Ang^6
Na   c Cl   s Buckingham    Buckingham A     2314.7000    eV        0.000 12.000
                            Buckingham rho  0.29000000    Ang
                            Buckingham C     0.0000000    eV*Ang^6
O    s O    s Buckingham    Buckingham A     22764.300    eV        0.000 12.000
                            Buckingham rho  0.14900000    Ang
                            Buckingham C     13.190000    eV*Ang^6
O    s Cl   s Buckingham    Buckingham A     8286.9100    eV        0.000 12.000
                            Buckingham rho  0.25900000    Ang
                            Buckingham C     62.200000    eV*Ang^6
Cl   s Cl   s Buckingham    Buckingham A     1227.2000    eV        0.000 12.000
                            Buckingham rho  0.32100000    Ang
                            Buckingham C     14.530000    eV*Ang^6
O    s Mg   s Buckingham    Buckingham A     1428.5000    eV        0.000 12.000
                            Buckingham rho  0.29450000    Ang
                            Buckingham C     0.0000000    eV*Ang^6
Mg   s Cl   s Buckingham    Buckingham A     4914.5400    eV        0.000 12.000
                            Buckingham rho  0.25700000    Ang
                            Buckingham C     0.0000000    eV*Ang^6
O    s Ca   s Buckingham    Buckingham A     1090.4000    eV        0.000 12.000
                            Buckingham rho  0.34370000    Ang
                            Buckingham C     0.0000000    eV*Ang^6
Cl   s Ca   s Buckingham    Buckingham A     2302.0000    eV        0.000 12.000
                            Buckingham rho  0.34020000    Ang
                            Buckingham C     0.0000000    eV*Ang^6
O    s Sr   s Buckingham    Buckingham A     959.10000    eV        0.000 12.000
                            Buckingham rho  0.37210000    Ang
                            Buckingham C     0.0000000    eV*Ang^6
Cl   s Sr   s Buckingham    Buckingham A     2191.0900    eV        0.000 12.000
                            Buckingham rho  0.34570000    Ang
                            Buckingham C     0.0000000    eV*Ang^6
O    s Ba   s Buckingham    Buckingham A     905.70000    eV        0.000 12.000
                            Buckingham rho  0.39760000    Ang
                            Buckingham C     0.0000000    eV*Ang^6
Cl   s Ba   s Buckingham    Buckingham A     2704.5500    eV        0.000 12.000
                            Buckingham rho  0.35280000    Ang
                            Buckingham C     0.0000000    eV*Ang^6

*  Output for configuration   1                                                *

  Components of energy :

  Interatomic potentials     =           5.27830498 eV
  Monopole - monopole (real) =          -3.10336104 eV
  Monopole - monopole (recip)=         -35.56551832 eV
  Monopole - monopole (total)=         -38.66887936 eV
  Total lattice energy :
    Primitive unit cell      =         -33.39057438 eV
    Non-primitive unit cell  =        -133.56229753 eV
  Total lattice energy (in kJmol-1):
    Primitive unit cell      =           -3221.6800 kJ/(mole unit cells)
    Non-primitive unit cell  =          -12886.7200 kJ/(mole unit cells)

  Number of variables =        1

  Maximum number of calculations  =          1000
  Maximum Hessian update interval =            10
  Maximum step size               =   1.000000000
  Maximum parameter tolerance     =   0.000010000
  Maximum function  tolerance     =   0.000010000
  Maximum gradient  tolerance     =   0.001000000
  Maximum gradient  component     =   0.010000000

  Symmetry constrained optimisation

  Symmetry used for second derivatives

  Cell parameters to be optimised using strains

  Newton-Raphson optimiser to be used

  BFGS hessian update to be used

  Lower half triangular hessian to be used

  Start of bulk optimisation :

  ** Hessian calculated **

  **** Optimisation achieved ****

  Final energy =     -33.39616550 eV
  Final Gnorm  =       0.00014767

  Components of energy :

  Interatomic potentials     =           5.56805063 eV
  Monopole - monopole (real) =          -3.12706322 eV
  Monopole - monopole (recip)=         -35.83715292 eV
  Monopole - monopole (total)=         -38.96421613 eV
  Total lattice energy :
    Primitive unit cell      =         -33.39616550 eV
    Non-primitive unit cell  =        -133.58466199 eV
  Total lattice energy (in kJmol-1):
    Primitive unit cell      =           -3222.2195 kJ/(mole unit cells)
    Non-primitive unit cell  =          -12888.8779 kJ/(mole unit cells)

  Final asymmetric unit coordinates :

   No.  Atomic        x           y           z         Radius
        Label       (Frac)      (Frac)      (Frac)       (Angs)
     1  Sr    c     0.000000    0.000000    0.000000    0.000000
     2  O     c     0.500000    0.000000    0.000000    0.000000
     3  Sr    s     0.000000    0.000000    0.000000    0.000000
     4  O     s     0.500000    0.000000    0.000000    0.000000

  Final Cartesian lattice vectors (Angstroms) :

        0.000000    2.583345    2.583345
        2.583345    0.000000    2.583345
        2.583345    2.583345    0.000000

  Final cell parameters and derivatives :

       a            3.653402 Angstrom     dE/de1(xx)     0.000148 eV/strain
       b            3.653402 Angstrom     dE/de2(yy)     0.000000 eV/strain
       c            3.653402 Angstrom     dE/de3(zz)     0.000000 eV/strain
       alpha       60.000000 Degrees      dE/de4(yz)     0.000000 eV/strain
       beta        60.000000 Degrees      dE/de5(xz)     0.000000 eV/strain
       gamma       60.000000 Degrees      dE/de6(xy)     0.000000 eV/strain

  Primitive cell volume =            34.480811 Angs**3

  Density of cell =      4.990248 g/cm**3

  Non-primitive lattice parameters :

  a    =     5.166691  b   =     5.166691  c    =     5.166691
  alpha=    90.000000  beta=    90.000000  gamma=    90.000000

  Non-primitive cell volume =           137.923243 Angs**3

  Final internal derivatives :

   No.  Atomic          a             b             c           Radius
        Label          (eV)          (eV)          (eV)        (eV/Angs)
      1 Sr    c       0.000000      0.000000      0.000000      0.000000
      2 O     c       0.000000      0.000000      0.000000      0.000000
      3 Sr    s       0.000000      0.000000      0.000000      0.000000
      4 O     s       0.000000      0.000000      0.000000      0.000000
  Maximum abs         0.000000      0.000000      0.000000      0.000000

  Comparison of initial and final structures :

  Parameter   Initial value   Final value   Difference    Units      Percent
    Volume       141.107641    137.923243    -3.184398    Angs**3     -2.26
    a              5.206152      5.166691    -0.039461    Angstroms   -0.76
    b              5.206152      5.166691    -0.039461    Angstroms   -0.76
    c              5.206152      5.166691    -0.039461    Angstroms   -0.76
    alpha         90.000000     90.000000     0.000000    Degrees      0.00
    beta          90.000000     90.000000     0.000000    Degrees      0.00
    gamma         90.000000     90.000000     0.000000    Degrees      0.00
      1 x          0.000000      0.000000     0.000000    Fractional   0.00
      1 y          0.000000      0.000000     0.000000    Fractional   0.00
      1 z          0.000000      0.000000     0.000000    Fractional   0.00
      2 x          0.500000      0.500000     0.000000    Fractional   0.00
      2 y          0.000000      0.000000     0.000000    Fractional   0.00
      2 z          0.000000      0.000000     0.000000    Fractional   0.00
      3 x          0.000000      0.000000     0.000000    Fractional   0.00
      3 y          0.000000      0.000000     0.000000    Fractional   0.00
      3 z          0.000000      0.000000     0.000000    Fractional   0.00
      4 x          0.500000      0.500000     0.000000    Fractional   0.00
      4 y          0.000000      0.000000     0.000000    Fractional   0.00
      4 z          0.000000      0.000000     0.000000    Fractional   0.00

  Born effective charge tensors :

  Atom             x           y             z
    1 Sr    x       2.0829      0.0000     -0.0000
            y       0.0000      2.0829      0.0000
            z      -0.0000      0.0000      2.0829
    2 O     x      -2.0829     -0.0000      0.0000
            y      -0.0000     -2.0829     -0.0000
            z       0.0000     -0.0000     -2.0829

  Elastic Constant Matrix: (Units=GPa)

  Indices      1         2         3         4         5         6
       1    152.7869   75.3541   75.3541   -0.0000   -0.0000    0.0000
       2     75.3541  152.7869   75.3541    0.0000   -0.0000    0.0000
       3     75.3541   75.3541  152.7869    0.0000   -0.0000   -0.0000
       4     -0.0000    0.0000    0.0000   75.3543   -0.0000    0.0000
       5     -0.0000   -0.0000   -0.0000   -0.0000   75.3543    0.0000
       6      0.0000    0.0000   -0.0000    0.0000    0.0000   75.3543

  Elastic Compliance Matrix: (Units=1/GPa)

  Indices      1         2         3         4         5         6
       1    0.009708 -0.003206 -0.003206  0.000000 -0.000000 -0.000000
       2   -0.003206  0.009708 -0.003206 -0.000000 -0.000000 -0.000000
       3   -0.003206 -0.003206  0.009708 -0.000000  0.000000  0.000000
       4    0.000000 -0.000000 -0.000000  0.013271  0.000000 -0.000000
       5   -0.000000 -0.000000  0.000000  0.000000  0.013271 -0.000000
       6   -0.000000 -0.000000  0.000000 -0.000000 -0.000000  0.013271

  Mechanical properties :

  Convention :                    Reuss         Voigt         Hill
  Bulk  Modulus (GPa)     =     101.16504     101.16504     101.16504
  Shear Modulus (GPa)     =      54.66296      60.69916      57.68106
  Velocity S-wave (km/s)  =       3.30968       3.48763       3.39982
  Velocity P-wave (km/s)  =       5.90575       6.04075       5.97363
  Compressibility (1/GPa) =    0.00988484
  Stress axis :                     x             y             z
  Youngs Moduli (GPa)     =     103.00854     103.00854     103.00854
  Poissons Ratio (x)      =                     0.33030       0.33030
  Poissons Ratio (y)      =       0.33030                     0.33030
  Poissons Ratio (z)      =       0.33030       0.33030

  Piezoelectric Strain Matrix: (Units=C/m**2)

  Indices      1         2         3         4         5         6
       x     0.00000  -0.00000  -0.00000  -0.00000  -0.00000  -0.00000
       y    -0.00000  -0.00000  -0.00000  -0.00000  -0.00000  -0.00000
       z    -0.00000  -0.00000  -0.00000  -0.00000  -0.00000  -0.00000

  Piezoelectric Stress Matrix: (Units=10**-11 C/N)

  Indices      1         2         3         4         5         6
       x     0.00000  -0.00000  -0.00000  -0.00000  -0.00000  -0.00000
       y    -0.00000  -0.00000  -0.00000  -0.00000  -0.00000  -0.00000
       z    -0.00000  -0.00000   0.00000  -0.00000  -0.00000  -0.00000

  Static dielectric constant tensor :

              x         y         z
       x    10.77544   0.00000  -0.00000
       y     0.00000  10.77544   0.00000
       z    -0.00000   0.00000  10.77544

  High frequency dielectric constant tensor :

              x         y         z
       x     1.93046   0.00000  -0.00000
       y     0.00000   1.93046   0.00000
       z    -0.00000   0.00000   1.93046

  Static refractive indices :

    1 =    3.28260      2 =    3.28260      3 =    3.28260

  High frequency refractive indices :

    1 =    1.38941      2 =    1.38941      3 =    1.38941

  Time to end of optimisation =       0.0366 seconds

*  Defect calculation for configuration   1 :                                  *

  **** No defects for configuration number    1 ****

  Timing analysis for GULP :

  Task / Subroutine                                          Time (Seconds)
  Calculation of reciprocal space energy and derivatives          0.0003
  Calculation of reciprocal space energy using symmetry           0.0006
  Calculation of real space energy and derivatives                0.0019
  Calculation of real space energy using symmetry                 0.0163
  Symmetry generation of equivalent positions                     0.0058

  Dump file written as Na3OCl.grs

  Job Finished at 14:10.28  3rd December   2020