  Job Started  at 13:17.06  3rd December   2020

  Number of CPUs =     1

  Total number of configurations input =      1

*  Input for Configuration =   1                                               *

  Formula = ClONa3

  Number of irreducible atoms/shells =       5

  Total number atoms/shells =       7

  Dimensionality = 3               :  Bulk

  Symmetry :

  Crystal family                   :  Cubic
  Crystal class  (Groth - 1921)    :  Cubic Hexakisoctahedral

  Space group (centrosymmetric)    :  P M 3 M

  Patterson group                  :  P m -3 m

  Cartesian lattice vectors (Angstroms) :

        4.504000    0.000000    0.000000
        0.000000    4.504000    0.000000
        0.000000    0.000000    4.504000

  Cell parameters (Angstroms/Degrees):

  a =       4.5040    alpha =  90.0000
  b =       4.5040    beta  =  90.0000
  c =       4.5040    gamma =  90.0000

  Initial cell volume =          91.368216 Angs**3

  Temperature of configuration =   0.00     K

  Pressure of configuration =         0.000 GPa

  Fractional coordinates of asymmetric unit :

   No.  Atomic       x           y          z         Charge      Occupancy
        Label      (Frac)      (Frac)     (Frac)        (e)         (Frac)
      1 Cl    c    0.000000    0.000000    0.000000     1.48500    1.000000
      2 O     c    0.500000    0.500000    0.500000     0.18300    1.000000
      3 Na    c    0.500000    0.500000    0.000000     1.00000    1.000000
      4 Cl    s    0.000000    0.000000    0.000000    -2.48500    1.000000
      5 O     s    0.500000    0.500000    0.500000    -2.18300    1.000000

  Constraints :

  Constraint no.      Unconstrained     Constrained    Coefficient    Offset
                         Variable         Variable
           1              Strain 1        Strain 2       1.00000      0.0000
           2              Strain 1        Strain 3       1.00000      0.0000

*  General input information                                                   *

  Species output for all configurations :

  Species    Type    Atomic    Atomic    Charge       Radii (Angs)     Library
                     Number     Mass       (e)     Cova   Ionic  VDW   Symbol
    Na       Core       11      22.99   1.000000   0.970  0.000  2.300
    O        Core        8      16.00   0.183000   0.730  0.000  1.360
    O        Shell       8       0.00  -2.183000   0.730  0.000  0.000
    Cl       Core       17      35.45   1.485000   0.990  0.000  1.650
    Cl       Shell      17       0.00  -2.485000   0.990  0.000  0.000
    Mg       Core       12      24.31   0.415000   1.100  0.000  0.000
    Mg       Shell      12       0.00   1.585000   1.100  0.000  0.000
    Ca       Core       20      40.08  -1.135000   0.990  0.000  0.000
    Ca       Shell      20       0.00   3.135000   0.990  0.000  0.000
    Sr       Core       38      87.62  -1.251000   1.120  0.000  0.000
    Sr       Shell      38       0.00   3.251000   1.120  0.000  0.000
    Ba       Core       56     137.33  -7.203000   1.340  0.000  0.000
    Ba       Shell      56       0.00   9.203000   1.340  0.000  0.000

  Lattice summation method               =    Ewald          (3-D)
                                         =    Parry          (2-D)
                                         =    Saunders et al (1-D)
  Accuracy factor for lattice sums       =   12.000

  Analytic derivatives to be used

  Time limit = Infinity

  Maximum range for interatomic potentials =    100000.000000 Angstroms

  General interatomic potentials :

Atom  Types   Potential      Parameter       Value         Units   Cutoffs(Ang)
  1     2                                                            Min /  Max
O    c O    s Spring (c-s)  Spring k 2       593.71600    eV*Ang^-2 0.000  0.800
                            Spring k 4       0.0000000    eV*Ang^-4
Cl   c Cl   s Spring (c-s)  Spring k 2       29.380000    eV*Ang^-2 0.000  0.800
                            Spring k 4       0.0000000    eV*Ang^-4
Mg   c Mg   s Spring (c-s)  Spring k 2       361.60000    eV*Ang^-2 0.000  0.800
                            Spring k 4       0.0000000    eV*Ang^-4
Ca   c Ca   s Spring (c-s)  Spring k 2       110.20000    eV*Ang^-2 0.000  0.800
                            Spring k 4       0.0000000    eV*Ang^-4
Sr   c Sr   s Spring (c-s)  Spring k 2       71.700000    eV*Ang^-2 0.000  0.800
                            Spring k 4       0.0000000    eV*Ang^-4
Ba   c Ba   s Spring (c-s)  Spring k 2       495.20000    eV*Ang^-2 0.000  0.800
                            Spring k 4       0.0000000    eV*Ang^-4
Na   c Na   c Buckingham    Buckingham A     1788.1900    eV        0.000 12.000
                            Buckingham rho  0.15900000    Ang
                            Buckingham C     0.0000000    eV*Ang^6
Na   c O    s Buckingham    Buckingham A     1226.8400    eV        0.000 12.000
                            Buckingham rho  0.30700000    Ang
                            Buckingham C     0.0000000    eV*Ang^6
Na   c Cl   s Buckingham    Buckingham A     2314.7000    eV        0.000 12.000
                            Buckingham rho  0.29000000    Ang
                            Buckingham C     0.0000000    eV*Ang^6
O    s O    s Buckingham    Buckingham A     22764.300    eV        0.000 12.000
                            Buckingham rho  0.14900000    Ang
                            Buckingham C     13.190000    eV*Ang^6
O    s Cl   s Buckingham    Buckingham A     8286.9100    eV        0.000 12.000
                            Buckingham rho  0.25900000    Ang
                            Buckingham C     62.200000    eV*Ang^6
Cl   s Cl   s Buckingham    Buckingham A     1227.2000    eV        0.000 12.000
                            Buckingham rho  0.32100000    Ang
                            Buckingham C     14.530000    eV*Ang^6
O    s Mg   s Buckingham    Buckingham A     1428.5000    eV        0.000 12.000
                            Buckingham rho  0.29450000    Ang
                            Buckingham C     0.0000000    eV*Ang^6
Mg   s Cl   s Buckingham    Buckingham A     4914.5400    eV        0.000 12.000
                            Buckingham rho  0.25700000    Ang
                            Buckingham C     0.0000000    eV*Ang^6
O    s Ca   s Buckingham    Buckingham A     1090.4000    eV        0.000 12.000
                            Buckingham rho  0.34370000    Ang
                            Buckingham C     0.0000000    eV*Ang^6
Cl   s Ca   s Buckingham    Buckingham A     2302.0000    eV        0.000 12.000
                            Buckingham rho  0.34020000    Ang
                            Buckingham C     0.0000000    eV*Ang^6
O    s Sr   s Buckingham    Buckingham A     959.10000    eV        0.000 12.000
                            Buckingham rho  0.37210000    Ang
                            Buckingham C     0.0000000    eV*Ang^6
Cl   s Sr   s Buckingham    Buckingham A     2191.0900    eV        0.000 12.000
                            Buckingham rho  0.34570000    Ang
                            Buckingham C     0.0000000    eV*Ang^6
O    s Ba   s Buckingham    Buckingham A     905.70000    eV        0.000 12.000
                            Buckingham rho  0.39760000    Ang
                            Buckingham C     0.0000000    eV*Ang^6
Cl   s Ba   s Buckingham    Buckingham A     2704.5500    eV        0.000 12.000
                            Buckingham rho  0.35280000    Ang
                            Buckingham C     0.0000000    eV*Ang^6

*  Output for configuration   1                                                *

  Components of energy :

  Interatomic potentials     =           5.13022605 eV
  Monopole - monopole (real) =         -10.03624526 eV
  Monopole - monopole (recip)=         -29.53581274 eV
  Monopole - monopole (total)=         -39.57205800 eV
  Total lattice energy       =         -34.44183194 eV
  Total lattice energy       =           -3323.1103 kJ/(mole unit cells)

  Number of variables =        1

  Maximum number of calculations  =          1000
  Maximum Hessian update interval =            10
  Maximum step size               =   1.000000000
  Maximum parameter tolerance     =   0.000010000
  Maximum function  tolerance     =   0.000010000
  Maximum gradient  tolerance     =   0.001000000
  Maximum gradient  component     =   0.010000000

  Symmetry constrained optimisation

  Symmetry used for second derivatives

  Cell parameters to be optimised using strains

  Newton-Raphson optimiser to be used

  BFGS hessian update to be used

  Lower half triangular hessian to be used

  Start of bulk optimisation :

  ** Hessian calculated **

  **** Optimisation achieved ****

  Final energy =     -34.44191447 eV
  Final Gnorm  =       0.00000000

  Components of energy :

  Interatomic potentials     =           5.09689708 eV
  Monopole - monopole (real) =         -10.02781331 eV
  Monopole - monopole (recip)=         -29.51099824 eV
  Monopole - monopole (total)=         -39.53881155 eV
  Total lattice energy       =         -34.44191447 eV
  Total lattice energy       =           -3323.1183 kJ/(mole unit cells)

  Final asymmetric unit coordinates :

   No.  Atomic        x           y           z         Radius
        Label       (Frac)      (Frac)      (Frac)       (Angs)
     1  Cl    c     0.000000    0.000000    0.000000    0.000000
     2  O     c     0.500000    0.500000    0.500000    0.000000
     3  Na    c     0.500000    0.500000    0.000000    0.000000
     4  Cl    s     0.000000    0.000000    0.000000    0.000000
     5  O     s     0.500000    0.500000    0.500000    0.000000

  Final Cartesian lattice vectors (Angstroms) :

        4.507787    0.000000    0.000000
        0.000000    4.507787    0.000000
        0.000000    0.000000    4.507787

  Final cell parameters and derivatives :

       a            4.507787 Angstrom     dE/de1(xx)     0.000000 eV/strain
       b            4.507787 Angstrom     dE/de2(yy)     0.000000 eV/strain
       c            4.507787 Angstrom     dE/de3(zz)     0.000000 eV/strain
       alpha       90.000000 Degrees      dE/de4(yz)     0.000000 eV/strain
       beta        90.000000 Degrees      dE/de5(xz)     0.000000 eV/strain
       gamma       90.000000 Degrees      dE/de6(xy)     0.000000 eV/strain

  Primitive cell volume =            91.598892 Angs**3

  Density of cell =      2.183054 g/cm**3

  Non-primitive cell volume =            91.598892 Angs**3

  Final internal derivatives :

   No.  Atomic          a             b             c           Radius
        Label          (eV)          (eV)          (eV)        (eV/Angs)
      1 Cl    c       0.000000      0.000000      0.000000      0.000000
      2 O     c       0.000000      0.000000      0.000000      0.000000
      3 Na    c       0.000000      0.000000      0.000000      0.000000
      4 Cl    s       0.000000      0.000000      0.000000      0.000000
      5 O     s       0.000000      0.000000      0.000000      0.000000
  Maximum abs         0.000000      0.000000      0.000000      0.000000

  Comparison of initial and final structures :

[...]
    330 y          2.253894      2.253562    -0.000332    Cartesian   -0.01
    330 z          2.253894      2.240405    -0.013488    Cartesian   -0.60
    331 x         -2.253894     -2.266483    -0.012590    Cartesian    0.56
    331 y          2.253894      2.233795    -0.020099    Cartesian   -0.89
    331 z         -6.761681     -6.755194     0.006486    Cartesian   -0.10
    332 x          9.015574      9.025566     0.009991    Cartesian    0.11
    332 y          4.507787      4.541078     0.033291    Cartesian    0.74
    332 z         -4.507787     -4.527762    -0.019975    Cartesian    0.44
    333 x          9.015574      9.030733     0.015158    Cartesian    0.17
    333 y         -4.507787     -4.484060     0.023727    Cartesian   -0.53
    333 z          4.507787      4.486596    -0.021191    Cartesian   -0.47
    334 x          2.253894      2.253894     0.000000    Cartesian    0.00
    334 y          6.761681      6.753908    -0.007773    Cartesian   -0.11
    334 z         -6.761681     -6.754251     0.007429    Cartesian   -0.11
    335 x          2.253894      2.253894     0.000000    Cartesian    0.00
    335 y         -6.761681     -6.721167     0.040514    Cartesian   -0.60
    335 z          6.761681      6.762078     0.000397    Cartesian    0.01
    336 x         11.269468     11.254871    -0.014597    Cartesian   -0.13
    336 y         -2.253894     -2.245063     0.008831    Cartesian   -0.39
    336 z          2.253894      2.251544    -0.002350    Cartesian   -0.10
    337 x         -2.253894     -2.249175     0.004718    Cartesian   -0.21
    337 y         -2.253894     -2.226598     0.027296    Cartesian   -1.21
    337 z         -6.761681     -6.752286     0.009395    Cartesian   -0.14
    338 x          6.761681      6.776555     0.014875    Cartesian    0.22
    338 y         -6.761681     -6.742777     0.018904    Cartesian   -0.28
    338 z         -2.253894     -2.269453    -0.015560    Cartesian    0.69
    339 x         11.269468     11.279932     0.010464    Cartesian    0.09
    339 y          2.253894      2.252104    -0.001790    Cartesian   -0.08
    339 z         -2.253894     -2.239585     0.014309    Cartesian   -0.63
    340 x          4.507787      4.496957    -0.010830    Cartesian   -0.24
    340 y          9.015574      9.017998     0.002424    Cartesian    0.03
    340 z         -4.507787     -4.560465    -0.052678    Cartesian    1.17
    341 x          4.507787      4.529715     0.021928    Cartesian    0.49
    341 y         -4.507787     -4.493735     0.014053    Cartesian   -0.31
    341 z          9.015574      9.057968     0.042393    Cartesian    0.47
    342 x          2.253894      2.253894     0.000000    Cartesian    0.00
    342 y         11.269468     11.269812     0.000343    Cartesian    0.00
    342 z          2.253894      2.246038    -0.007856    Cartesian   -0.35
    343 x          2.253894      2.253894     0.000000    Cartesian    0.00
    343 y          2.253894      2.249935    -0.003958    Cartesian   -0.18
    343 z         11.269468     11.218155    -0.051313    Cartesian   -0.46
    344 x         11.269468     11.268679    -0.000789    Cartesian   -0.01
    344 y         -2.253894     -2.231271     0.022623    Cartesian   -1.00
    344 z         -2.253894     -2.248985     0.004908    Cartesian   -0.22
    345 x          9.015574      9.022710     0.007136    Cartesian    0.08
    345 y         -4.507787     -4.508563    -0.000776    Cartesian    0.02
    345 z         -4.507787     -4.514640    -0.006852    Cartesian    0.15
    346 x          4.507787      4.480581    -0.027206    Cartesian   -0.60
    346 y          0.000000      0.005573     0.005573    Cartesian    0.00
    346 z         -9.015574     -9.023778    -0.008203    Cartesian    0.09
    347 x          4.507787      4.514493     0.006706    Cartesian    0.15
    347 y         -9.015574     -9.015157     0.000417    Cartesian   -0.00
    347 z          0.000000     -0.005233    -0.005233    Cartesian    0.00
    348 x          9.015574      9.057132     0.041558    Cartesian    0.46
    348 y          0.000000      0.014427     0.014427    Cartesian    0.00
    348 z          9.015574      9.020951     0.005377    Cartesian    0.06
    349 x          9.015574      9.031278     0.015703    Cartesian    0.17
    349 y          9.015574      9.051580     0.036005    Cartesian    0.40
    349 z          0.000000     -0.012189    -0.012189    Cartesian    0.00
    350 x          6.761681      6.759682    -0.001999    Cartesian   -0.03
    350 y          6.761681      6.764245     0.002565    Cartesian    0.04
    350 z         -6.761681     -6.728977     0.032704    Cartesian   -0.48
    351 x          6.761681      6.768591     0.006910    Cartesian    0.10
    351 y         -6.761681     -6.762512    -0.000831    Cartesian    0.01
    351 z          6.761681      6.750090    -0.011591    Cartesian   -0.17
    352 x         11.269468     11.266656    -0.002812    Cartesian   -0.02
    352 y          2.253894      2.256630     0.002737    Cartesian    0.12
    352 z          6.761681      6.738587    -0.023093    Cartesian   -0.34
    353 x         11.269468     11.271694     0.002226    Cartesian    0.02
    353 y          6.761681      6.744628    -0.017053    Cartesian   -0.25
    353 z          2.253894      2.235327    -0.018566    Cartesian   -0.82
    354 x          2.253894      2.253894     0.000000    Cartesian    0.00
    354 y         11.269468     11.273663     0.004195    Cartesian    0.04
    354 z         -2.253894     -2.247904     0.005990    Cartesian   -0.27
    355 x          2.253894      2.253894     0.000000    Cartesian    0.00
    355 y         -2.253894     -2.244330     0.009563    Cartesian   -0.42
    355 z         11.269468     11.228015    -0.041453    Cartesian   -0.37
    356 x          4.507787      4.542268     0.034481    Cartesian    0.76
    356 y          4.507787      4.536382     0.028595    Cartesian    0.63
    356 z         -9.015574     -9.033969    -0.018395    Cartesian    0.20
    357 x          4.507787      4.468232    -0.039556    Cartesian   -0.88
    357 y         -9.015574     -9.032096    -0.016521    Cartesian    0.18
    357 z          4.507787      4.474396    -0.033391    Cartesian   -0.74
    358 x          9.015574      9.020673     0.005098    Cartesian    0.06
    358 y          9.015574      9.026283     0.010708    Cartesian    0.12
    358 z          4.507787      4.496833    -0.010954    Cartesian   -0.24
    359 x          9.015574      9.031917     0.016342    Cartesian    0.18
    359 y          4.507787      4.526201     0.018414    Cartesian    0.41
    359 z          9.015574      9.010296    -0.005278    Cartesian   -0.06
    360 x         11.269468     11.271109     0.001641    Cartesian    0.01
    360 y         -2.253894     -2.251550     0.002344    Cartesian   -0.10
    360 z          6.761681      6.736549    -0.025131    Cartesian   -0.37
    361 x         -2.253894     -2.261122    -0.007228    Cartesian    0.32
    361 y         11.269468     11.254091    -0.015377    Cartesian   -0.14
    361 z          2.253894      2.231989    -0.021904    Cartesian   -0.97
    362 x          2.253894      2.253894     0.000000    Cartesian    0.00
    362 y         -6.761681     -6.731290     0.030391    Cartesian   -0.45
    362 z         -6.761681     -6.769364    -0.007683    Cartesian    0.11
    363 x          6.761681      6.755594    -0.006087    Cartesian   -0.09
    363 y          2.253894      2.272864     0.018970    Cartesian    0.84
    363 z         11.269468     11.251948    -0.017520    Cartesian   -0.16
    364 x         11.269468     11.271545     0.002077    Cartesian    0.02
    364 y          6.761681      6.752621    -0.009060    Cartesian   -0.13
    364 z         -2.253894     -2.238896     0.014998    Cartesian   -0.67
    365 x         13.523362     13.579671     0.056310    Cartesian    0.42
    365 y          0.000000     -0.010637    -0.010637    Cartesian    0.00
    365 z          0.000000      0.005379     0.005379    Cartesian    0.00
    366 x          4.507787      4.514437     0.006650    Cartesian    0.15
    366 y          9.015574      9.052116     0.036542    Cartesian    0.41
    366 z          9.015574      9.026655     0.011081    Cartesian    0.12
    367 x          2.253894      2.253894     0.000000    Cartesian    0.00
    367 y          6.761681      6.735599    -0.026082    Cartesian   -0.39
    367 z         11.269468     11.252708    -0.016760    Cartesian   -0.15
    368 x          2.253894      2.253894     0.000000    Cartesian    0.00
    368 y         11.269468     11.248228    -0.021240    Cartesian   -0.19
    368 z          6.761681      6.770492     0.008811    Cartesian    0.13
    369 x         -2.253894     -2.253637     0.000257    Cartesian   -0.01
    369 y         11.269468     11.256235    -0.013233    Cartesian   -0.12
    369 z         -2.253894     -2.234989     0.018904    Cartesian   -0.84
    370 x          6.761681      6.765170     0.003489    Cartesian    0.05
    370 y         -2.253894     -2.264992    -0.011099    Cartesian    0.49
    370 z         11.269468     11.254186    -0.015282    Cartesian   -0.14
    371 x         13.523362     13.569009     0.045647    Cartesian    0.34
    371 y          0.000000      0.008972     0.008972    Cartesian    0.00
    371 z          4.507787      4.485141    -0.022646    Cartesian   -0.50
    372 x         13.523362     13.558958     0.035596    Cartesian    0.26
    372 y          4.507787      4.530934     0.023147    Cartesian    0.51
    372 z          0.000000     -0.014335    -0.014335    Cartesian    0.00
    373 x          4.507787      4.519579     0.011792    Cartesian    0.26
    373 y         -4.507787     -4.491020     0.016767    Cartesian   -0.37
    373 z         -9.015574     -9.032292    -0.016718    Cartesian    0.19
    374 x          4.507787      4.506791    -0.000996    Cartesian   -0.02
    374 y         -9.015574     -9.026357    -0.010783    Cartesian    0.12
    374 z         -4.507787     -4.541619    -0.033832    Cartesian    0.75
    375 x          9.015574      9.012316    -0.003258    Cartesian   -0.04
    375 y          9.015574      9.021449     0.005874    Cartesian    0.07
    375 z         -4.507787     -4.529826    -0.022039    Cartesian    0.49
    376 x          9.015574      9.038946     0.023372    Cartesian    0.26
    376 y         -4.507787     -4.497560     0.010227    Cartesian   -0.23
    376 z          9.015574      9.043776     0.028202    Cartesian    0.31
    377 x         11.269468     11.266542    -0.002926    Cartesian   -0.03
    377 y          6.761681      6.746778    -0.014903    Cartesian   -0.22
    377 z          6.761681      6.761300    -0.000381    Cartesian   -0.01
    378 x         11.269468     11.265812    -0.003656    Cartesian   -0.03
    378 y         -6.761681     -6.743602     0.018079    Cartesian   -0.27
    378 z          2.253894      2.238703    -0.015190    Cartesian   -0.67
    379 x          6.761681      6.764134     0.002454    Cartesian    0.04
    379 y         -6.761681     -6.765494    -0.003813    Cartesian    0.06
    379 z         -6.761681     -6.744070     0.017611    Cartesian   -0.26
    380 x         11.269468     11.269367    -0.000101    Cartesian   -0.00
    380 y          2.253894      2.271573     0.017680    Cartesian    0.78
    380 z         -6.761681     -6.752150     0.009531    Cartesian   -0.14
    381 x         13.523362     13.533640     0.010278    Cartesian    0.08
    381 y          4.507787      4.495408    -0.012379    Cartesian   -0.27
    381 z          4.507787      4.513090     0.005303    Cartesian    0.12
    382 x          9.015574      9.032656     0.017082    Cartesian    0.19
    382 y         -9.015574     -9.078254    -0.062679    Cartesian    0.70
    382 z          0.000000     -0.010285    -0.010285    Cartesian    0.00
    383 x          9.015574      8.998618    -0.016957    Cartesian   -0.19
    383 y          0.000000      0.012931     0.012931    Cartesian    0.00
    383 z         -9.015574     -8.997284     0.018291    Cartesian   -0.20
    384 x          2.253894      2.253894     0.000000    Cartesian    0.00
    384 y          2.253894      2.247920    -0.005973    Cartesian   -0.27
    384 z        -11.269468    -11.262604     0.006864    Cartesian   -0.06
    385 x          2.253894      2.253894     0.000000    Cartesian    0.00
    385 y        -11.269468    -11.274797    -0.005329    Cartesian    0.05
    385 z          2.253894      2.259369     0.005475    Cartesian    0.24
    386 x         11.269468     11.267167    -0.002301    Cartesian   -0.02
    386 y         -6.761681     -6.757364     0.004316    Cartesian   -0.06
    386 z         -2.253894     -2.243062     0.010831    Cartesian   -0.48
    387 x         -2.253894     -2.254387    -0.000493    Cartesian    0.02
    387 y         11.269468     11.254828    -0.014640    Cartesian   -0.13
    387 z          6.761681      6.765206     0.003525    Cartesian    0.05
    388 x          6.761681      6.759196    -0.002484    Cartesian   -0.04
    388 y          6.761681      6.751417    -0.010264    Cartesian   -0.15
    388 z         11.269468     11.265083    -0.004385    Cartesian   -0.04
    389 x         11.269468     11.273828     0.004360    Cartesian    0.04
    389 y         -2.253894     -2.258663    -0.004769    Cartesian    0.21
    389 z         -6.761681     -6.745787     0.015894    Cartesian   -0.24
    390 x         13.523362     13.553159     0.029797    Cartesian    0.22
    390 y          0.000000      0.008685     0.008685    Cartesian    0.00
    390 z         -4.507787     -4.505717     0.002070    Cartesian   -0.05
    391 x         13.523362     13.536981     0.013619    Cartesian    0.10
    391 y         -4.507787     -4.515397    -0.007610    Cartesian    0.17
    391 z          0.000000     -0.007806    -0.007806    Cartesian    0.00
    392 x          4.507787      4.467114    -0.040673    Cartesian   -0.90
    392 y          0.000000      0.011569     0.011569    Cartesian    0.00
    392 z         13.523362     13.554994     0.031632    Cartesian    0.23
    393 x          4.507787      4.560331     0.052544    Cartesian    1.17
    393 y         13.523362     13.529693     0.006332    Cartesian    0.05
    393 z          0.000000     -0.009748    -0.009748    Cartesian    0.00
    394 x          9.015574      8.998105    -0.017470    Cartesian   -0.19
    394 y         -9.015574     -9.003368     0.012207    Cartesian   -0.14
    394 z          4.507787      4.505784    -0.002003    Cartesian   -0.04
    395 x          9.015574      9.023702     0.008128    Cartesian    0.09
    395 y          4.507787      4.498574    -0.009213    Cartesian   -0.20
    395 z         -9.015574     -9.047139    -0.031564    Cartesian    0.35
    396 x          2.253894      2.253894     0.000000    Cartesian    0.00
    396 y         -2.253894     -2.239997     0.013896    Cartesian   -0.62
    396 z        -11.269468    -11.269516    -0.000048    Cartesian    0.00
    397 x          2.253894      2.253894     0.000000    Cartesian    0.00
    397 y        -11.269468    -11.248901     0.020567    Cartesian   -0.18
    397 z         -2.253894     -2.271145    -0.017252    Cartesian    0.77
    398 x          2.253894      2.253894     0.000000    Cartesian    0.00
    398 y         11.269468     11.252682    -0.016786    Cartesian   -0.15
    398 z         -6.761681     -6.773424    -0.011743    Cartesian    0.17
    399 x          2.253894      2.253894     0.000000    Cartesian    0.00
    399 y         -6.761681     -6.742477     0.019204    Cartesian   -0.28
    399 z         11.269468     11.283260     0.013792    Cartesian    0.12

  Time to end of optimisation  =      287.2494 seconds

  Timing analysis for GULP :

  Task / Subroutine                                          Time (Seconds)
  Calculation of reciprocal space energy and derivatives          0.0004
  Calculation of reciprocal space energy using symmetry           0.0005
  Calculation of real space energy and derivatives                0.0020
  Calculation of real space energy using symmetry                 0.0048
  Calculation for region 1 energy and derivatives (2-b)         101.3480
  Calculation for region 2a energy                              173.2256
  Calculation and manipulation of Hessian matrix                  0.3283
  Calculation of matrix inversion                                11.6025
  Symmetry generation of equivalent positions                     0.0025

  Dump file written as Na3OCl.grs

  Job Finished at 13:21.55  3rd December   2020