  Job Started  at 13:17.36  3rd December   2020

  Number of CPUs =     1

  Total number of configurations input =      1

*  Input for Configuration =   1                                               *

  Formula = ClONa3

  Number of irreducible atoms/shells =       5

  Total number atoms/shells =       7

  Dimensionality = 3               :  Bulk

  Symmetry :

  Crystal family                   :  Cubic
  Crystal class  (Groth - 1921)    :  Cubic Hexakisoctahedral

  Space group (centrosymmetric)    :  P M 3 M

  Patterson group                  :  P m -3 m

  Cartesian lattice vectors (Angstroms) :

        4.504000    0.000000    0.000000
        0.000000    4.504000    0.000000
        0.000000    0.000000    4.504000

  Cell parameters (Angstroms/Degrees):

  a =       4.5040    alpha =  90.0000
  b =       4.5040    beta  =  90.0000
  c =       4.5040    gamma =  90.0000

  Initial cell volume =          91.368216 Angs**3

  Temperature of configuration =   0.00     K

  Pressure of configuration =         0.000 GPa

  Fractional coordinates of asymmetric unit :

   No.  Atomic       x           y          z         Charge      Occupancy
        Label      (Frac)      (Frac)     (Frac)        (e)         (Frac)
      1 Cl    c    0.000000    0.000000    0.000000     1.48500    1.000000
      2 O     c    0.500000    0.500000    0.500000     0.18300    1.000000
      3 Na    c    0.500000    0.500000    0.000000     1.00000    1.000000
      4 Cl    s    0.000000    0.000000    0.000000    -2.48500    1.000000
      5 O     s    0.500000    0.500000    0.500000    -2.18300    1.000000

  Constraints :

  Constraint no.      Unconstrained     Constrained    Coefficient    Offset
                         Variable         Variable
           1              Strain 1        Strain 2       1.00000      0.0000
           2              Strain 1        Strain 3       1.00000      0.0000

*  General input information                                                   *

  Species output for all configurations :

  Species    Type    Atomic    Atomic    Charge       Radii (Angs)     Library
                     Number     Mass       (e)     Cova   Ionic  VDW   Symbol
    Na       Core       11      22.99   1.000000   0.970  0.000  2.300
    O        Core        8      16.00   0.183000   0.730  0.000  1.360
    O        Shell       8       0.00  -2.183000   0.730  0.000  0.000
    Cl       Core       17      35.45   1.485000   0.990  0.000  1.650
    Cl       Shell      17       0.00  -2.485000   0.990  0.000  0.000
    Mg       Core       12      24.31   0.415000   1.100  0.000  0.000
    Mg       Shell      12       0.00   1.585000   1.100  0.000  0.000
    Ca       Core       20      40.08  -1.135000   0.990  0.000  0.000
    Ca       Shell      20       0.00   3.135000   0.990  0.000  0.000
    Sr       Core       38      87.62  -1.251000   1.120  0.000  0.000
    Sr       Shell      38       0.00   3.251000   1.120  0.000  0.000
    Ba       Core       56     137.33  -7.203000   1.340  0.000  0.000
    Ba       Shell      56       0.00   9.203000   1.340  0.000  0.000

  Lattice summation method               =    Ewald          (3-D)
                                         =    Parry          (2-D)
                                         =    Saunders et al (1-D)
  Accuracy factor for lattice sums       =   12.000

  Analytic derivatives to be used

  Time limit = Infinity

  Maximum range for interatomic potentials =    100000.000000 Angstroms

  General interatomic potentials :

Atom  Types   Potential      Parameter       Value         Units   Cutoffs(Ang)
  1     2                                                            Min /  Max
O    c O    s Spring (c-s)  Spring k 2       593.71600    eV*Ang^-2 0.000  0.800
                            Spring k 4       0.0000000    eV*Ang^-4
Cl   c Cl   s Spring (c-s)  Spring k 2       29.380000    eV*Ang^-2 0.000  0.800
                            Spring k 4       0.0000000    eV*Ang^-4
Mg   c Mg   s Spring (c-s)  Spring k 2       361.60000    eV*Ang^-2 0.000  0.800
                            Spring k 4       0.0000000    eV*Ang^-4
Ca   c Ca   s Spring (c-s)  Spring k 2       110.20000    eV*Ang^-2 0.000  0.800
                            Spring k 4       0.0000000    eV*Ang^-4
Sr   c Sr   s Spring (c-s)  Spring k 2       71.700000    eV*Ang^-2 0.000  0.800
                            Spring k 4       0.0000000    eV*Ang^-4
Ba   c Ba   s Spring (c-s)  Spring k 2       495.20000    eV*Ang^-2 0.000  0.800
                            Spring k 4       0.0000000    eV*Ang^-4
Na   c Na   c Buckingham    Buckingham A     1788.1900    eV        0.000 12.000
                            Buckingham rho  0.15900000    Ang
                            Buckingham C     0.0000000    eV*Ang^6
Na   c O    s Buckingham    Buckingham A     1226.8400    eV        0.000 12.000
                            Buckingham rho  0.30700000    Ang
                            Buckingham C     0.0000000    eV*Ang^6
Na   c Cl   s Buckingham    Buckingham A     2314.7000    eV        0.000 12.000
                            Buckingham rho  0.29000000    Ang
                            Buckingham C     0.0000000    eV*Ang^6
O    s O    s Buckingham    Buckingham A     22764.300    eV        0.000 12.000
                            Buckingham rho  0.14900000    Ang
                            Buckingham C     13.190000    eV*Ang^6
O    s Cl   s Buckingham    Buckingham A     8286.9100    eV        0.000 12.000
                            Buckingham rho  0.25900000    Ang
                            Buckingham C     62.200000    eV*Ang^6
Cl   s Cl   s Buckingham    Buckingham A     1227.2000    eV        0.000 12.000
                            Buckingham rho  0.32100000    Ang
                            Buckingham C     14.530000    eV*Ang^6
O    s Mg   s Buckingham    Buckingham A     1428.5000    eV        0.000 12.000
                            Buckingham rho  0.29450000    Ang
                            Buckingham C     0.0000000    eV*Ang^6
Mg   s Cl   s Buckingham    Buckingham A     4914.5400    eV        0.000 12.000
                            Buckingham rho  0.25700000    Ang
                            Buckingham C     0.0000000    eV*Ang^6
O    s Ca   s Buckingham    Buckingham A     1090.4000    eV        0.000 12.000
                            Buckingham rho  0.34370000    Ang
                            Buckingham C     0.0000000    eV*Ang^6
Cl   s Ca   s Buckingham    Buckingham A     2302.0000    eV        0.000 12.000
                            Buckingham rho  0.34020000    Ang
                            Buckingham C     0.0000000    eV*Ang^6
O    s Sr   s Buckingham    Buckingham A     959.10000    eV        0.000 12.000
                            Buckingham rho  0.37210000    Ang
                            Buckingham C     0.0000000    eV*Ang^6
Cl   s Sr   s Buckingham    Buckingham A     2191.0900    eV        0.000 12.000
                            Buckingham rho  0.34570000    Ang
                            Buckingham C     0.0000000    eV*Ang^6
O    s Ba   s Buckingham    Buckingham A     905.70000    eV        0.000 12.000
                            Buckingham rho  0.39760000    Ang
                            Buckingham C     0.0000000    eV*Ang^6
Cl   s Ba   s Buckingham    Buckingham A     2704.5500    eV        0.000 12.000
                            Buckingham rho  0.35280000    Ang
                            Buckingham C     0.0000000    eV*Ang^6

*  Output for configuration   1                                                *

  Components of energy :

  Interatomic potentials     =           5.13022605 eV
  Monopole - monopole (real) =         -10.03624526 eV
  Monopole - monopole (recip)=         -29.53581274 eV
  Monopole - monopole (total)=         -39.57205800 eV
  Total lattice energy       =         -34.44183194 eV
  Total lattice energy       =           -3323.1103 kJ/(mole unit cells)

  Number of variables =        1

  Maximum number of calculations  =          1000
  Maximum Hessian update interval =            10
  Maximum step size               =   1.000000000
  Maximum parameter tolerance     =   0.000010000
  Maximum function  tolerance     =   0.000010000
  Maximum gradient  tolerance     =   0.001000000
  Maximum gradient  component     =   0.010000000

  Symmetry constrained optimisation

  Symmetry used for second derivatives

  Cell parameters to be optimised using strains

  Newton-Raphson optimiser to be used

  BFGS hessian update to be used

  Lower half triangular hessian to be used

  Start of bulk optimisation :

  ** Hessian calculated **

  **** Optimisation achieved ****

  Final energy =     -34.44191447 eV
  Final Gnorm  =       0.00000000

  Components of energy :

  Interatomic potentials     =           5.09689708 eV
  Monopole - monopole (real) =         -10.02781331 eV
  Monopole - monopole (recip)=         -29.51099824 eV
  Monopole - monopole (total)=         -39.53881155 eV
  Total lattice energy       =         -34.44191447 eV
  Total lattice energy       =           -3323.1183 kJ/(mole unit cells)

  Final asymmetric unit coordinates :

   No.  Atomic        x           y           z         Radius
        Label       (Frac)      (Frac)      (Frac)       (Angs)
     1  Cl    c     0.000000    0.000000    0.000000    0.000000
     2  O     c     0.500000    0.500000    0.500000    0.000000
     3  Na    c     0.500000    0.500000    0.000000    0.000000
     4  Cl    s     0.000000    0.000000    0.000000    0.000000
     5  O     s     0.500000    0.500000    0.500000    0.000000

  Final Cartesian lattice vectors (Angstroms) :

        4.507787    0.000000    0.000000
        0.000000    4.507787    0.000000
        0.000000    0.000000    4.507787

  Final cell parameters and derivatives :

       a            4.507787 Angstrom     dE/de1(xx)     0.000000 eV/strain
       b            4.507787 Angstrom     dE/de2(yy)     0.000000 eV/strain
       c            4.507787 Angstrom     dE/de3(zz)     0.000000 eV/strain
       alpha       90.000000 Degrees      dE/de4(yz)     0.000000 eV/strain
       beta        90.000000 Degrees      dE/de5(xz)     0.000000 eV/strain
       gamma       90.000000 Degrees      dE/de6(xy)     0.000000 eV/strain

  Primitive cell volume =            91.598892 Angs**3

  Density of cell =      2.183054 g/cm**3

  Non-primitive cell volume =            91.598892 Angs**3

  Final internal derivatives :

   No.  Atomic          a             b             c           Radius
        Label          (eV)          (eV)          (eV)        (eV/Angs)
      1 Cl    c       0.000000      0.000000      0.000000      0.000000
      2 O     c       0.000000      0.000000      0.000000      0.000000
      3 Na    c       0.000000      0.000000      0.000000      0.000000
      4 Cl    s       0.000000      0.000000      0.000000      0.000000
      5 O     s       0.000000      0.000000      0.000000      0.000000
  Maximum abs         0.000000      0.000000      0.000000      0.000000

  Comparison of initial and final structures :

[...]
   568  O     s    -2.251000    6.758788    6.758788    0.000000   -2.183000
   569  O     s     2.253894    2.253894   11.324489    0.000000   -2.183000
   570  O     s     2.253894    2.253894   -6.816701    0.000000   -2.183000
[...]
   676  Cl    s    -4.478949    8.986736   -4.478949    0.000000   -2.485000
   677  Cl    s    -4.478949   -4.478949    8.986736    0.000000   -2.485000
   678  Cl    s    -4.478949   -4.478949   -4.478949    0.000000   -2.485000
   679  O     s     2.253894   11.266906   11.266906    0.000000   -2.183000
   680  O     s     2.253894   11.266906   -6.759119    0.000000   -2.183000
   681  O     s     2.253894   -6.759119   11.266906    0.000000   -2.183000
   682  O     s     2.253894   -6.759119   -6.759119    0.000000   -2.183000
   683  O     s    11.266906    2.253894   11.266906    0.000000   -2.183000
   684  O     s    11.266906    2.253894   -6.759119    0.000000   -2.183000
   685  O     s    11.266906   11.266906    2.253894    0.000000   -2.183000
   686  O     s    11.266906   -6.759119    2.253894    0.000000   -2.183000
   687  O     s    -6.759119    2.253894   11.266906    0.000000   -2.183000
   688  O     s    -6.759119    2.253894   -6.759119    0.000000   -2.183000
   689  O     s    -6.759119   11.266906    2.253894    0.000000   -2.183000
   690  O     s    -6.759119   -6.759119    2.253894    0.000000   -2.183000

  Final coordinates of symmetry reduced region 1 (relative to defect centre):

   No.  Atomic        x           y           z          Charge
        Label       (Angs)      (Angs)      (Angs)         (e)
     1  Na    c     0.000000    0.000000    2.494843    1.000000
     2  Cl    c     1.916243    1.916243    1.916243    1.485000
     3  O     c     0.000000    0.000000   -4.662238    0.183000
     4  Na    c     0.000000   -4.629738    2.266018    1.000000
     5  O     c     0.000000   -4.512096   -4.512096    0.183000
     6  Na    c    -4.606846   -4.606846    2.259331    1.000000
     7  Na    c     0.000000    0.000000    6.862753    1.000000
     8  Cl    c     2.275163    2.275163    6.725262    1.485000
     9  O     c     4.504872   -4.504872   -4.504872    0.183000
    10  Na    c     0.000000   -4.529457    6.781368    1.000000
    11  O     c     0.000000    0.000000    9.070601    0.183000
    12  Na    c     0.000000    9.107459    2.260375    1.000000
    13  Na    c     6.772542   -4.529206   -4.529206    1.000000
    14  Cl    c     2.238254    6.723309    6.723309    1.485000
    15  O     c     0.000000    9.026992   -4.512540    0.183000
    16  Na    c     9.036072   -4.505108    2.257765    1.000000
    17  O     c     9.023019   -4.511977   -4.511977    0.183000
    18  Na    c     0.000000    0.000000   11.299690    1.000000
    19  Na    c     0.000000    9.025552    6.766555    1.000000
    20  Cl    c     2.246954    2.246954   11.230972    1.485000
    21  Cl    c     6.736092    6.736092    6.736092    1.485000
    22  Na    c     0.000000    4.548712   11.280383    1.000000
    23  Na    c     4.512375    9.039047    6.766794    1.000000
    24  O     c     0.000000    9.013009    9.013009    0.183000
    25  Na    c    -4.526489   -4.526489   11.279411    1.000000
    26  Na    c     9.054120    9.054120    2.255259    1.000000
    27  Cl    s     1.882808    1.882808    1.882808   -2.485000
    28  O     s     0.000000    0.000000   -4.662164   -2.183000
    29  O     s     0.000000   -4.512127   -4.512127   -2.183000
    30  Cl    s     2.275469    2.275469    6.718060   -2.485000
    31  O     s     4.504894   -4.504894   -4.504894   -2.183000
    32  O     s     0.000000    0.000000    9.070595   -2.183000
    33  Cl    s     2.236019    6.714940    6.714940   -2.485000
    34  O     s     0.000000    9.026999   -4.512547   -2.183000
    35  O     s     9.023021   -4.511981   -4.511981   -2.183000
    36  Cl    s     2.244823    2.244823   11.224760   -2.485000
    37  Cl    s     6.732843    6.732843    6.732843   -2.485000
    38  O     s     0.000000    9.013013    9.013013   -2.183000

  Final derivatives for region 1 :

   No.  Atomic          x             y             z            Radius
        Label       (eV/Angs)     (eV/Angs)     (eV/Angs)       (eV/Angs)
     1  Na    c       0.000000      0.000000      0.000807      0.000000
     2  Cl    c       0.004749      0.000000      0.000000      0.000000
     3  O     c       0.000000      0.000000     -0.000382      0.000000
     4  Na    c       0.000000     -0.001448     -0.000552      0.000000
     5  O     c       0.000000     -0.000204      0.000000      0.000000
     6  Na    c       0.000728      0.000000      0.000085      0.000000
     7  Na    c       0.000000      0.000000      0.000803      0.000000
     8  Cl    c       0.002175      0.000000      0.003330      0.000000
     9  O     c       0.000130      0.000000      0.000000      0.000000
    10  Na    c       0.000000     -0.000216      0.002047      0.000000
    11  O     c       0.000000      0.000000      0.000078      0.000000
    12  Na    c       0.000000      0.000965      0.000676      0.000000
    13  Na    c       0.001305     -0.000938      0.000000      0.000000
    14  Cl    c       0.000423      0.003361      0.000000      0.000000
    15  O     c       0.000000      0.000227     -0.000081      0.000000
    16  Na    c       0.002506     -0.001044      0.000727      0.000000
    17  O     c       0.000178     -0.000157      0.000000      0.000000
    18  Na    c       0.000000      0.000000      0.000368      0.000000
    19  Na    c       0.000000      0.001252      0.000830      0.000000
    20  Cl    c       0.000623      0.000000      0.001396      0.000000
    21  Cl    c       0.001046      0.000000      0.000000      0.000000
    22  Na    c       0.000000      0.000415      0.001051      0.000000
    23  Na    c       0.000886      0.001969      0.001462      0.000000
    24  O     c       0.000000      0.000117      0.000000      0.000000
    25  Na    c      -0.000680      0.000000      0.000823      0.000000
    26  Na    c       0.001713      0.000000      0.000166      0.000000
    27  Cl    s      -0.006010      0.000000      0.000000      0.000000
    28  O     s       0.000000      0.000000      0.003977      0.000000
    29  O     s       0.000000      0.005365      0.000000      0.000000
    30  Cl    s      -0.004047      0.000000     -0.004970      0.000000
    31  O     s      -0.003855      0.000000      0.000000      0.000000
    32  O     s       0.000000      0.000000     -0.000818      0.000000
    33  Cl    s      -0.000972     -0.003672      0.000000      0.000000
    34  O     s       0.000000     -0.002821      0.001109      0.000000
    35  O     s      -0.002182      0.001806      0.000000      0.000000
    36  Cl    s      -0.000779      0.000000     -0.002086      0.000000
    37  Cl    s      -0.001655      0.000000      0.000000      0.000000
    38  O     s       0.000000     -0.001329      0.000000      0.000000

  Comparison of initial and final region 1 :

  Parameter   Initial value   Final value   Difference    Units      Percent
      1 x          2.253894      2.253894     0.000000    Cartesian    0.00
      1 y          2.253894      2.253894     0.000000    Cartesian    0.00
      1 z          4.507787      4.748737     0.240949    Cartesian    5.35
      2 x          4.507787      4.170137    -0.337650    Cartesian   -7.49
      2 y          4.507787      4.170137    -0.337650    Cartesian   -7.49
      2 z          4.507787      4.170137    -0.337650    Cartesian   -7.49
      3 x          2.253894      2.253894     0.000000    Cartesian    0.00
      3 y          2.253894      2.253894     0.000000    Cartesian    0.00
      3 z         -2.253894     -2.408345    -0.154451    Cartesian    6.85
      4 x          2.253894      2.253894     0.000000    Cartesian    0.00
      4 y         -2.253894     -2.375844    -0.121951    Cartesian    5.41
      4 z          4.507787      4.519911     0.012124    Cartesian    0.27
      5 x          2.253894      2.253894     0.000000    Cartesian    0.00
      5 y         -2.253894     -2.258203    -0.004309    Cartesian    0.19
      5 z         -2.253894     -2.258203    -0.004309    Cartesian    0.19
      6 x         -2.253894     -2.352953    -0.099059    Cartesian    4.40
      6 y         -2.253894     -2.352953    -0.099059    Cartesian    4.40
      6 z          4.507787      4.513224     0.005437    Cartesian    0.12
      7 x          2.253894      2.253894     0.000000    Cartesian    0.00
      7 y          2.253894      2.253894     0.000000    Cartesian    0.00
      7 z          9.015574      9.116646     0.101072    Cartesian    1.12
      8 x          4.507787      4.529057     0.021270    Cartesian    0.47
      8 y          4.507787      4.529057     0.021270    Cartesian    0.47
      8 z          9.015574      8.979155    -0.036419    Cartesian   -0.40
      9 x          6.761681      6.758765    -0.002915    Cartesian   -0.04
      9 y         -2.253894     -2.250978     0.002915    Cartesian   -0.13
      9 z         -2.253894     -2.250978     0.002915    Cartesian   -0.13
     10 x          2.253894      2.253894     0.000000    Cartesian    0.00
     10 y         -2.253894     -2.275564    -0.021670    Cartesian    0.96
     10 z          9.015574      9.035262     0.019687    Cartesian    0.22
     11 x          2.253894      2.253894     0.000000    Cartesian    0.00
     11 y          2.253894      2.253894     0.000000    Cartesian    0.00
     11 z         11.269468     11.324495     0.055027    Cartesian    0.49
     12 x          2.253894      2.253894     0.000000    Cartesian    0.00
     12 y         11.269468     11.361353     0.091884    Cartesian    0.82
     12 z          4.507787      4.514269     0.006482    Cartesian    0.14
     13 x          9.015574      9.026435     0.010861    Cartesian    0.12
     13 y         -2.253894     -2.275313    -0.021419    Cartesian    0.95
     13 z         -2.253894     -2.275313    -0.021419    Cartesian    0.95
     14 x          4.507787      4.492147    -0.015640    Cartesian   -0.35
     14 y          9.015574      8.977202    -0.038372    Cartesian   -0.43
     14 z          9.015574      8.977202    -0.038372    Cartesian   -0.43
     15 x          2.253894      2.253894     0.000000    Cartesian    0.00
     15 y         11.269468     11.280886     0.011418    Cartesian    0.10
     15 z         -2.253894     -2.258646    -0.004753    Cartesian    0.21
     16 x         11.269468     11.289966     0.020498    Cartesian    0.18
     16 y         -2.253894     -2.251215     0.002679    Cartesian   -0.12
     16 z          4.507787      4.511658     0.003871    Cartesian    0.09
     17 x         11.269468     11.276912     0.007444    Cartesian    0.07
     17 y         -2.253894     -2.258084    -0.004190    Cartesian    0.19
     17 z         -2.253894     -2.258084    -0.004190    Cartesian    0.19
     18 x          2.253894      2.253894     0.000000    Cartesian    0.00
     18 y          2.253894      2.253894     0.000000    Cartesian    0.00
     18 z         13.523362     13.553584     0.030222    Cartesian    0.22
     19 x          2.253894      2.253894     0.000000    Cartesian    0.00
     19 y         11.269468     11.279446     0.009978    Cartesian    0.09
     19 z          9.015574      9.020448     0.004874    Cartesian    0.05
     20 x          4.507787      4.500848    -0.006939    Cartesian   -0.15
     20 y          4.507787      4.500848    -0.006939    Cartesian   -0.15
     20 z         13.523362     13.484865    -0.038496    Cartesian   -0.28
     21 x          9.015574      8.989986    -0.025589    Cartesian   -0.28
     21 y          9.015574      8.989986    -0.025589    Cartesian   -0.28
     21 z          9.015574      8.989986    -0.025589    Cartesian   -0.28
     22 x          2.253894      2.253894     0.000000    Cartesian    0.00
     22 y          6.761681      6.802606     0.040925    Cartesian    0.61
     22 z         13.523362     13.534276     0.010915    Cartesian    0.08
     23 x          6.761681      6.766268     0.004587    Cartesian    0.07
     23 y         11.269468     11.292941     0.023473    Cartesian    0.21
     23 z          9.015574      9.020688     0.005113    Cartesian    0.06
     24 x          2.253894      2.253894     0.000000    Cartesian    0.00
     24 y         11.269468     11.266902    -0.002566    Cartesian   -0.02
     24 z         11.269468     11.266902    -0.002566    Cartesian   -0.02
     25 x         -2.253894     -2.272596    -0.018702    Cartesian    0.83
     25 y         -2.253894     -2.272596    -0.018702    Cartesian    0.83
     25 z         13.523362     13.533304     0.009943    Cartesian    0.07
     26 x         11.269468     11.308014     0.038546    Cartesian    0.34
     26 y         11.269468     11.308014     0.038546    Cartesian    0.34
     26 z          4.507787      4.509153     0.001366    Cartesian    0.03
     27 x          4.507787      4.136702    -0.371085    Cartesian   -8.23
     27 y          4.507787      4.136702    -0.371085    Cartesian   -8.23
     27 z          4.507787      4.136702    -0.371085    Cartesian   -8.23
     28 x          2.253894      2.253894     0.000000    Cartesian    0.00
     28 y          2.253894      2.253894     0.000000    Cartesian    0.00
     28 z         -2.253894     -2.408270    -0.154377    Cartesian    6.85
     29 x          2.253894      2.253894     0.000000    Cartesian    0.00
     29 y         -2.253894     -2.258233    -0.004340    Cartesian    0.19
     29 z         -2.253894     -2.258233    -0.004340    Cartesian    0.19
     30 x          4.507787      4.529362     0.021575    Cartesian    0.48
     30 y          4.507787      4.529362     0.021575    Cartesian    0.48
     30 z          9.015574      8.971954    -0.043621    Cartesian   -0.48
     31 x          6.761681      6.758788    -0.002893    Cartesian   -0.04
     31 y         -2.253894     -2.251000     0.002893    Cartesian   -0.13
     31 z         -2.253894     -2.251000     0.002893    Cartesian   -0.13
     32 x          2.253894      2.253894     0.000000    Cartesian    0.00
     32 y          2.253894      2.253894     0.000000    Cartesian    0.00
     32 z         11.269468     11.324489     0.055021    Cartesian    0.49
     33 x          4.507787      4.489913    -0.017875    Cartesian   -0.40
     33 y          9.015574      8.968833    -0.046741    Cartesian   -0.52
     33 z          9.015574      8.968833    -0.046741    Cartesian   -0.52
     34 x          2.253894      2.253894     0.000000    Cartesian    0.00
     34 y         11.269468     11.280893     0.011425    Cartesian    0.10
     34 z         -2.253894     -2.258653    -0.004759    Cartesian    0.21
     35 x         11.269468     11.276915     0.007447    Cartesian    0.07
     35 y         -2.253894     -2.258087    -0.004194    Cartesian    0.19
     35 z         -2.253894     -2.258087    -0.004194    Cartesian    0.19
     36 x          4.507787      4.498716    -0.009071    Cartesian   -0.20
     36 y          4.507787      4.498716    -0.009071    Cartesian   -0.20
     36 z         13.523362     13.478654    -0.044708    Cartesian   -0.33
     37 x          9.015574      8.986736    -0.028838    Cartesian   -0.32
     37 y          9.015574      8.986736    -0.028838    Cartesian   -0.32
     37 z          9.015574      8.986736    -0.028838    Cartesian   -0.32
     38 x          2.253894      2.253894     0.000000    Cartesian    0.00
     38 y         11.269468     11.266906    -0.002562    Cartesian   -0.02
     38 z         11.269468     11.266906    -0.002562    Cartesian   -0.02

  Time to end of optimisation  =        6.4429 seconds

  Timing analysis for GULP :

  Task / Subroutine                                          Time (Seconds)
  Calculation of reciprocal space energy and derivatives          0.0007
  Calculation of reciprocal space energy using symmetry           0.0010
  Calculation of real space energy and derivatives                0.0038
  Calculation of real space energy using symmetry                 0.0093
  Calculation for region 1 energy and derivatives (2-b)           3.3289
  Calculation for region 2a energy                                2.8270
  Calculation for region 2b energy                                0.0002
  Calculation and manipulation of Hessian matrix                  0.0526
  Calculation of matrix inversion                                 0.0003
  Symmetry generation of equivalent positions                     0.0048

  Dump file written as Na3OCl.grs

  Job Finished at 13:17.43  3rd December   2020