  Job Started  at 16:43.09  5th July       2021

  Number of CPUs =     1

  Total number of configurations input =      1

*  Input for Configuration =   1                                               *

  Formula = ONa2

  Number of irreducible atoms/shells =       3

  Total number atoms/shells =       4

  Dimensionality = 3               :  Bulk

  Symmetry :

  Crystal family                   :  Cubic
  Crystal class  (Groth - 1921)    :  Cubic Hexakisoctahedral

  Space group (centrosymmetric)    :  F M 3 M

  Patterson group                  :  F m -3 m

  Cartesian lattice vectors (Angstroms) :

        0.000000    2.775000    2.775000
        2.775000    0.000000    2.775000
        2.775000    2.775000    0.000000

  Primitive cell parameters :            Full cell parameters :

  a =   3.9244    alpha =  60.0000       a =   5.5500    alpha =  90.0000
  b =   3.9244    beta  =  60.0000       b =   5.5500    beta  =  90.0000
  c =   3.9244    gamma =  60.0000       c =   5.5500    gamma =  90.0000

  Initial volumes (Angstroms**3):

  Primitive cell =          42.738469    Full cell =         170.953875

  Temperature of configuration =   0.00     K

  Pressure of configuration =         0.000 GPa

  Fractional coordinates of asymmetric unit :

   No.  Atomic       x           y          z         Charge      Occupancy
        Label      (Frac)      (Frac)     (Frac)        (e)         (Frac)
      1 O     c    0.000000    0.000000    0.000000     0.48900    1.000000
      2 Na    c    0.250000    0.250000    0.250000     0.67000    1.000000
      3 O     s    0.000000    0.000000    0.000000    -1.82900    1.000000

  Constraints :

  Constraint no.      Unconstrained     Constrained    Coefficient    Offset
                         Variable         Variable
           1              Strain 1        Strain 2       1.00000      0.0000
           2              Strain 1        Strain 3       1.00000      0.0000

*  General input information                                                   *

  Species output for all configurations :

  Species    Type    Atomic    Atomic    Charge       Radii (Angs)     Library
                     Number     Mass       (e)     Cova   Ionic  VDW   Symbol
    Na       Core       11      22.99   0.670000   0.970  0.000  2.300
    O        Core        8      16.00   0.489000   0.730  0.000  1.360
    O        Shell       8       0.00  -1.829000   0.730  0.000  1.360
    Cl       Core       17      35.45   0.615000   0.990  0.000  0.000
    Cl       Shell      17       0.00  -1.285000   0.990  0.000  0.000

  Lattice summation method               =    Ewald          (3-D)
                                         =    Parry          (2-D)
                                         =    Saunders et al (1-D)
  Accuracy factor for lattice sums       =   12.000

  Analytic derivatives to be used

  Time limit = Infinity

  Maximum range for interatomic potentials =    100000.000000 Angstroms

  General interatomic potentials :

Atom  Types   Potential      Parameter       Value         Units   Cutoffs(Ang)
  1     2                                                            Min /  Max
O    c O    s Spring (c-s)  Spring k 2       34.450000    eV*Ang^-2 0.000  0.800
                            Spring k 4       0.0000000    eV*Ang^-4
Cl   c Cl   s Spring (c-s)  Spring k 2       28.250000    eV*Ang^-2 0.000  0.800
                            Spring k 4       0.0000000    eV*Ang^-4
Na   c Na   c Buckingham    Buckingham A     996.28210    eV        0.000 12.000
                            Buckingham rho  0.28830000    Ang
                            Buckingham C     0.0000000    eV*Ang^6
Na   c O    s Buckingham    Buckingham A     12439.222    eV        0.000 12.000
                            Buckingham rho  0.20150000    Ang
                            Buckingham C     0.0000000    eV*Ang^6
Na   c Cl   s Buckingham    Buckingham A     20907.738    eV        0.000 12.000
                            Buckingham rho  0.21660000    Ang
                            Buckingham C     0.0000000    eV*Ang^6
O    s O    s Buckingham    Buckingham A     35546.853    eV        0.000 12.000
                            Buckingham rho  0.12056000    Ang
                            Buckingham C     13.190000    eV*Ang^6
O    s Cl   s Buckingham    Buckingham A     47777.071    eV        0.000 12.000
                            Buckingham rho  0.24370000    Ang
                            Buckingham C     62.200000    eV*Ang^6
Cl   s Cl   s Buckingham    Buckingham A     35155.254    eV        0.000 12.000
                            Buckingham rho  0.21360000    Ang
                            Buckingham C     14.530000    eV*Ang^6

*  Output for configuration   1                                                *

  Components of energy :

  Interatomic potentials     =           1.04212187 eV
  Monopole - monopole (real) =          -1.84790817 eV
  Monopole - monopole (recip)=         -11.70514085 eV
  Monopole - monopole (total)=         -13.55304902 eV
  Total lattice energy :
    Primitive unit cell      =         -12.51092715 eV
    Non-primitive unit cell  =         -50.04370861 eV
  Total lattice energy (in kJmol-1):
    Primitive unit cell      =           -1207.1132 kJ/(mole unit cells)
    Non-primitive unit cell  =           -4828.4529 kJ/(mole unit cells)

  Number of variables =        1

  Maximum number of calculations  =          1000
  Maximum Hessian update interval =            10
  Maximum step size               =   1.000000000
  Maximum parameter tolerance     =   0.000010000
  Maximum function  tolerance     =   0.000010000
  Maximum gradient  tolerance     =   0.001000000
  Maximum gradient  component     =   0.010000000

  Symmetry constrained optimisation

  Symmetry used for second derivatives

  Cell parameters to be optimised using strains

  Newton-Raphson optimiser to be used

  BFGS hessian update to be used

  Lower half triangular hessian to be used

  Start of bulk optimisation :

  ** Hessian calculated **

  **** Optimisation achieved ****

  Final energy =     -12.52612782 eV
  Final Gnorm  =       0.00000005

  Components of energy :

  Interatomic potentials     =           1.24525297 eV
  Monopole - monopole (real) =          -1.87767690 eV
  Monopole - monopole (recip)=         -11.89370388 eV
  Monopole - monopole (total)=         -13.77138079 eV
  Total lattice energy :
    Primitive unit cell      =         -12.52612782 eV
    Non-primitive unit cell  =         -50.10451127 eV
  Total lattice energy (in kJmol-1):
    Primitive unit cell      =           -1208.5799 kJ/(mole unit cells)
    Non-primitive unit cell  =           -4834.3194 kJ/(mole unit cells)

  Final asymmetric unit coordinates :

   No.  Atomic        x           y           z         Radius
        Label       (Frac)      (Frac)      (Frac)       (Angs)
     1  O     c     0.000000    0.000000    0.000000    0.000000
     2  Na    c     0.250000    0.250000    0.250000    0.000000
     3  O     s     0.000000    0.000000    0.000000    0.000000

  Final Cartesian lattice vectors (Angstroms) :

        0.000000    2.731005    2.731005
        2.731005    0.000000    2.731005
        2.731005    2.731005    0.000000

  Final cell parameters and derivatives :

       a            3.862224 Angstrom     dE/de1(xx)     0.000000 eV/strain
       b            3.862224 Angstrom     dE/de2(yy)     0.000000 eV/strain
       c            3.862224 Angstrom     dE/de3(zz)     0.000000 eV/strain
       alpha       60.000000 Degrees      dE/de4(yz)     0.000000 eV/strain
       beta        60.000000 Degrees      dE/de5(xz)     0.000000 eV/strain
       gamma       60.000000 Degrees      dE/de6(xy)     0.000000 eV/strain

  Primitive cell volume =            40.737796 Angs**3

  Density of cell =      2.526446 g/cm**3

  Non-primitive lattice parameters :

  a    =     5.462010  b   =     5.462010  c    =     5.462010
  alpha=    90.000000  beta=    90.000000  gamma=    90.000000

  Non-primitive cell volume =           162.951182 Angs**3

  Final internal derivatives :

   No.  Atomic          a             b             c           Radius
        Label          (eV)          (eV)          (eV)        (eV/Angs)
      1 O     c       0.000000      0.000000      0.000000      0.000000
      2 Na    c       0.000000      0.000000      0.000000      0.000000
      3 O     s       0.000000      0.000000      0.000000      0.000000
  Maximum abs         0.000000      0.000000      0.000000      0.000000

  Comparison of initial and final structures :

  Parameter   Initial value   Final value   Difference    Units      Percent
    Volume       170.953875    162.951182    -8.002693    Angs**3     -4.68
    a              5.550000      5.462010    -0.087990    Angstroms   -1.59
    b              5.550000      5.462010    -0.087990    Angstroms   -1.59
    c              5.550000      5.462010    -0.087990    Angstroms   -1.59
    alpha         90.000000     90.000000     0.000000    Degrees      0.00
    beta          90.000000     90.000000     0.000000    Degrees      0.00
    gamma         90.000000     90.000000     0.000000    Degrees      0.00
      1 x          0.000000      0.000000     0.000000    Fractional   0.00
      1 y          0.000000      0.000000     0.000000    Fractional   0.00
      1 z          0.000000      0.000000     0.000000    Fractional   0.00
      2 x          0.250000      0.250000     0.000000    Fractional   0.00
      2 y          0.250000      0.250000     0.000000    Fractional   0.00
      2 z          0.250000      0.250000     0.000000    Fractional   0.00
      3 x          0.000000      0.000000     0.000000    Fractional   0.00
      3 y          0.000000      0.000000     0.000000    Fractional   0.00
      3 z          0.000000      0.000000     0.000000    Fractional   0.00

  Born effective charge tensors :

  Atom             x           y             z
    1 O     x      -1.2465     -0.0000     -0.0000
            y      -0.0000     -1.2465     -0.0000
            z      -0.0000     -0.0000     -1.2465
    2 Na    x       0.6232      0.0000      0.0000
            y       0.0000      0.6232     -0.0000
            z       0.0000     -0.0000      0.6232

  Elastic Constant Matrix: (Units=GPa)

  Indices      1         2         3         4         5         6
       1    123.5569   20.4930   20.4930   -0.0000   -0.0000   -0.0000
       2     20.4930  123.5569   20.4930   -0.0000   -0.0000   -0.0000
       3     20.4930   20.4930  123.5569   -0.0000   -0.0000   -0.0000
       4     -0.0000   -0.0000   -0.0000   20.1751   -0.0000   -0.0000
       5     -0.0000   -0.0000   -0.0000   -0.0000   20.1751   -0.0000
       6     -0.0000   -0.0000   -0.0000   -0.0000   -0.0000   20.1751

  Elastic Compliance Matrix: (Units=1/GPa)

  Indices      1         2         3         4         5         6
       1    0.008494 -0.001208 -0.001208  0.000000  0.000000  0.000000
       2   -0.001208  0.008494 -0.001208  0.000000  0.000000  0.000000
       3   -0.001208 -0.001208  0.008494  0.000000  0.000000  0.000000
       4    0.000000  0.000000  0.000000  0.049566  0.000000  0.000000
       5    0.000000  0.000000  0.000000  0.000000  0.049566  0.000000
       6    0.000000  0.000000  0.000000  0.000000  0.000000  0.049566

  Mechanical properties :

  Convention :                    Reuss         Voigt         Hill
  Bulk  Modulus (GPa)     =      54.84763      54.84763      54.84763
  Shear Modulus (GPa)     =      26.66537      32.71782      29.69160
  Velocity S-wave (km/s)  =       3.24877       3.59863       3.42817
  Velocity P-wave (km/s)  =       5.98181       6.24310       6.11385
  Compressibility (1/GPa) =    0.01823233
  Stress axis :                     x             y             z
  Youngs Moduli (GPa)     =     117.72606     117.72606     117.72606
  Poissons Ratio (x)      =                     0.14226       0.14226
  Poissons Ratio (y)      =       0.14226                     0.14226
  Poissons Ratio (z)      =       0.14226       0.14226

  Piezoelectric Strain Matrix: (Units=C/m**2)

  Indices      1         2         3         4         5         6
       x    -0.00000  -0.00000  -0.00000   0.00000   0.00000  -0.00000
       y    -0.00000  -0.00000  -0.00000   0.00000   0.00000  -0.00000
       z     0.00000   0.00000   0.00000  -0.00000  -0.00000   0.00000

  Piezoelectric Stress Matrix: (Units=10**-11 C/N)

  Indices      1         2         3         4         5         6
       x    -0.00000  -0.00000  -0.00000   0.00000   0.00000  -0.00000
       y    -0.00000  -0.00000  -0.00000   0.00000   0.00000  -0.00000
       z     0.00000   0.00000   0.00000  -0.00000  -0.00000   0.00000

  Static dielectric constant tensor :

              x         y         z
       x     4.01563   0.00000   0.00000
       y     0.00000   4.01563   0.00000
       z     0.00000   0.00000   4.01563

  High frequency dielectric constant tensor :

              x         y         z
       x     1.42563   0.00000   0.00000
       y     0.00000   1.42563   0.00000
       z     0.00000   0.00000   1.42563

  Static refractive indices :

    1 =    2.00390      2 =    2.00390      3 =    2.00390

  High frequency refractive indices :

    1 =    1.19400      2 =    1.19400      3 =    1.19400

  Time to end of optimisation =       0.0214 seconds

*  Defect calculation for configuration   1 :                                  *

  **** No defects for configuration number    1 ****

  Timing analysis for GULP :

  Task / Subroutine                                          Time (Seconds)
  Calculation of reciprocal space energy and derivatives          0.0003
  Calculation of reciprocal space energy using symmetry           0.0004
  Calculation of real space energy and derivatives                0.0022
  Calculation of real space energy using symmetry                 0.0104
  Symmetry generation of equivalent positions                     0.0024

  Dump file written as Na3OCl.grs

  Job Finished at 16:43.09  5th July       2021