  Job Started  at 16:43.09  5th July       2021

  Number of CPUs =     1

  Total number of configurations input =      1

*  Input for Configuration =   1 : NaCl                                        *

  Formula = NaCl

  Number of irreducible atoms/shells =       3

  Total number atoms/shells =       3

  Dimensionality = 3               :  Bulk

  Symmetry :

  Crystal family                   :  Cubic
  Crystal class  (Groth - 1921)    :  Cubic Hexakisoctahedral

  Space group (centrosymmetric)    :  F M 3 M

  Patterson group                  :  F m -3 m

  Cartesian lattice vectors (Angstroms) :

        0.000000    2.789000    2.789000
        2.789000    0.000000    2.789000
        2.789000    2.789000    0.000000

  Primitive cell parameters :            Full cell parameters :

  a =   3.9442    alpha =  60.0000       a =   5.5780    alpha =  90.0000
  b =   3.9442    beta  =  60.0000       b =   5.5780    beta  =  90.0000
  c =   3.9442    gamma =  60.0000       c =   5.5780    gamma =  90.0000

  Initial volumes (Angstroms**3):

  Primitive cell =          43.388590    Full cell =         173.554361

  Temperature of configuration =   0.00     K

  Pressure of configuration =         0.000 GPa

  Fractional coordinates of asymmetric unit :

   No.  Atomic       x           y          z         Charge      Occupancy
        Label      (Frac)      (Frac)     (Frac)        (e)         (Frac)
      1 Na    c    0.000000    0.000000    0.000000     0.67000    1.000000
      2 Cl    c    0.500000    0.000000    0.000000     0.61500    1.000000
      3 Cl    s    0.500000    0.000000    0.000000    -1.28500    1.000000

  Constraints :

  Constraint no.      Unconstrained     Constrained    Coefficient    Offset
                         Variable         Variable
           1              Strain 1        Strain 2       1.00000      0.0000
           2              Strain 1        Strain 3       1.00000      0.0000

*  General input information                                                   *

  Species output for all configurations :

  Species    Type    Atomic    Atomic    Charge       Radii (Angs)     Library
                     Number     Mass       (e)     Cova   Ionic  VDW   Symbol
    Na       Core       11      22.99   0.670000   0.970  0.000  2.300
    O        Core        8      16.00   0.489000   0.730  0.000  0.000
    O        Shell       8       0.00  -1.829000   0.730  0.000  0.000
    Cl       Core       17      35.45   0.615000   0.990  0.000  1.650
    Cl       Shell      17       0.00  -1.285000   0.990  0.000  1.650

  Lattice summation method               =    Ewald          (3-D)
                                         =    Parry          (2-D)
                                         =    Saunders et al (1-D)
  Accuracy factor for lattice sums       =   12.000

  Analytic derivatives to be used

  Time limit = Infinity

  Maximum range for interatomic potentials =    100000.000000 Angstroms

  General interatomic potentials :

Atom  Types   Potential      Parameter       Value         Units   Cutoffs(Ang)
  1     2                                                            Min /  Max
O    c O    s Spring (c-s)  Spring k 2       34.450000    eV*Ang^-2 0.000  0.800
                            Spring k 4       0.0000000    eV*Ang^-4
Cl   c Cl   s Spring (c-s)  Spring k 2       28.250000    eV*Ang^-2 0.000  0.800
                            Spring k 4       0.0000000    eV*Ang^-4
Na   c Na   c Buckingham    Buckingham A     996.28210    eV        0.000 12.000
                            Buckingham rho  0.28830000    Ang
                            Buckingham C     0.0000000    eV*Ang^6
Na   c O    s Buckingham    Buckingham A     12439.222    eV        0.000 12.000
                            Buckingham rho  0.20150000    Ang
                            Buckingham C     0.0000000    eV*Ang^6
Na   c Cl   s Buckingham    Buckingham A     20907.738    eV        0.000 12.000
                            Buckingham rho  0.21660000    Ang
                            Buckingham C     0.0000000    eV*Ang^6
O    s O    s Buckingham    Buckingham A     35546.853    eV        0.000 12.000
                            Buckingham rho  0.12056000    Ang
                            Buckingham C     13.190000    eV*Ang^6
O    s Cl   s Buckingham    Buckingham A     47777.071    eV        0.000 12.000
                            Buckingham rho  0.24370000    Ang
                            Buckingham C     62.200000    eV*Ang^6
Cl   s Cl   s Buckingham    Buckingham A     35155.254    eV        0.000 12.000
                            Buckingham rho  0.21360000    Ang
                            Buckingham C     14.530000    eV*Ang^6

*  Output for configuration   1 : NaCl                                         *

  Components of energy :

  Interatomic potentials     =           0.30229083 eV
  Monopole - monopole (real) =          -0.36798322 eV
  Monopole - monopole (recip)=          -3.68233862 eV
  Monopole - monopole (total)=          -4.05032184 eV
  Total lattice energy :
    Primitive unit cell      =          -3.74803101 eV
    Non-primitive unit cell  =         -14.99212403 eV
  Total lattice energy (in kJmol-1):
    Primitive unit cell      =            -361.6277 kJ/(mole unit cells)
    Non-primitive unit cell  =           -1446.5108 kJ/(mole unit cells)

  Number of variables =        1

  Maximum number of calculations  =          1000
  Maximum Hessian update interval =            10
  Maximum step size               =   1.000000000
  Maximum parameter tolerance     =   0.000010000
  Maximum function  tolerance     =   0.000010000
  Maximum gradient  tolerance     =   0.001000000
  Maximum gradient  component     =   0.010000000

  Symmetry constrained optimisation

  Symmetry used for second derivatives

  Cell parameters to be optimised using strains

  Newton-Raphson optimiser to be used

  BFGS hessian update to be used

  Lower half triangular hessian to be used

  Start of bulk optimisation :

  ** Hessian calculated **

  **** Optimisation achieved ****

  Final energy =      -3.74805664 eV
  Final Gnorm  =       0.00000000

  Components of energy :

  Interatomic potentials     =           0.29796820 eV
  Monopole - monopole (real) =          -0.36759282 eV
  Monopole - monopole (recip)=          -3.67843202 eV
  Monopole - monopole (total)=          -4.04602484 eV
  Total lattice energy :
    Primitive unit cell      =          -3.74805664 eV
    Non-primitive unit cell  =         -14.99222658 eV
  Total lattice energy (in kJmol-1):
    Primitive unit cell      =            -361.6302 kJ/(mole unit cells)
    Non-primitive unit cell  =           -1446.5207 kJ/(mole unit cells)

  Final asymmetric unit coordinates :

   No.  Atomic        x           y           z         Radius
        Label       (Frac)      (Frac)      (Frac)       (Angs)
     1  Na    c     0.000000    0.000000    0.000000    0.000000
     2  Cl    c     0.500000    0.000000    0.000000    0.000000
     3  Cl    s     0.500000    0.000000    0.000000    0.000000

  Final Cartesian lattice vectors (Angstroms) :

        0.000000    2.791962    2.791962
        2.791962    0.000000    2.791962
        2.791962    2.791962    0.000000

  Final cell parameters and derivatives :

       a            3.948431 Angstrom     dE/de1(xx)    -0.000000 eV/strain
       b            3.948431 Angstrom     dE/de2(yy)     0.000000 eV/strain
       c            3.948431 Angstrom     dE/de3(zz)     0.000000 eV/strain
       alpha       60.000000 Degrees      dE/de4(yz)     0.000000 eV/strain
       beta        60.000000 Degrees      dE/de5(xz)     0.000000 eV/strain
       gamma       60.000000 Degrees      dE/de6(xy)     0.000000 eV/strain

  Primitive cell volume =            43.526977 Angs**3

  Density of cell =      2.229501 g/cm**3

  Non-primitive lattice parameters :

  a    =     5.583924  b   =     5.583924  c    =     5.583924
  alpha=    90.000000  beta=    90.000000  gamma=    90.000000

  Non-primitive cell volume =           174.107908 Angs**3

  Final internal derivatives :

   No.  Atomic          a             b             c           Radius
        Label          (eV)          (eV)          (eV)        (eV/Angs)
      1 Na    c       0.000000      0.000000      0.000000      0.000000
      2 Cl    c       0.000000      0.000000      0.000000      0.000000
      3 Cl    s       0.000000      0.000000      0.000000      0.000000
  Maximum abs         0.000000      0.000000      0.000000      0.000000

  Born effective charge tensors :

  Atom             x           y             z
    1 Na    x       0.6374      0.0000      0.0000
            y       0.0000      0.6374     -0.0000
            z       0.0000     -0.0000      0.6374
    2 Cl    x      -0.6374     -0.0000     -0.0000
            y      -0.0000     -0.6374      0.0000
            z      -0.0000      0.0000     -0.6374

  Elastic Constant Matrix: (Units=GPa)

  Indices      1         2         3         4         5         6
       1     43.2165    6.1918    6.1918   -0.0000   -0.0000   -0.0000
       2      6.1918   43.2165    6.1918    0.0000   -0.0000   -0.0000
       3      6.1918    6.1918   43.2165    0.0000   -0.0000    0.0000
       4     -0.0000    0.0000    0.0000    6.1918   -0.0000   -0.0000
       5     -0.0000   -0.0000   -0.0000   -0.0000    6.1918   -0.0000
       6     -0.0000   -0.0000    0.0000   -0.0000   -0.0000    6.1918

  Elastic Compliance Matrix: (Units=1/GPa)

  Indices      1         2         3         4         5         6
       1    0.024001 -0.003008 -0.003008  0.000000  0.000000  0.000000
       2   -0.003008  0.024001 -0.003008 -0.000000  0.000000  0.000000
       3   -0.003008 -0.003008  0.024001 -0.000000  0.000000 -0.000000
       4    0.000000 -0.000000 -0.000000  0.161505  0.000000  0.000000
       5    0.000000  0.000000  0.000000  0.000000  0.161505  0.000000
       6    0.000000  0.000000 -0.000000  0.000000  0.000000  0.161505

  Mechanical properties :

  Convention :                    Reuss         Voigt         Hill
  Bulk  Modulus (GPa)     =      18.53333      18.53333      18.53333
  Shear Modulus (GPa)     =       8.43809      11.12000       9.77904
  Velocity S-wave (km/s)  =       1.94544       2.23331       2.09433
  Velocity P-wave (km/s)  =       3.65501       3.86820       3.76312
  Compressibility (1/GPa) =    0.05395684
  Stress axis :                     x             y             z
  Youngs Moduli (GPa)     =      41.66461      41.66461      41.66461
  Poissons Ratio (x)      =                     0.12532       0.12532
  Poissons Ratio (y)      =       0.12532                     0.12532
  Poissons Ratio (z)      =       0.12532       0.12532

  Piezoelectric Strain Matrix: (Units=C/m**2)

  Indices      1         2         3         4         5         6
       x    -0.00000   0.00000   0.00000  -0.00000   0.00000   0.00000
       y     0.00000  -0.00000   0.00000   0.00000  -0.00000   0.00000
       z     0.00000   0.00000   0.00000   0.00000   0.00000  -0.00000

  Piezoelectric Stress Matrix: (Units=10**-11 C/N)

  Indices      1         2         3         4         5         6
       x    -0.00000   0.00000   0.00000  -0.00000   0.00000   0.00000
       y     0.00000  -0.00000   0.00000   0.00000  -0.00000   0.00000
       z     0.00000   0.00000  -0.00000   0.00000   0.00000  -0.00000

  Static dielectric constant tensor :

              x         y         z
       x     2.58653  -0.00000   0.00000
       y    -0.00000   2.58653   0.00000
       z     0.00000   0.00000   2.58653

  High frequency dielectric constant tensor :

              x         y         z
       x     1.24638   0.00000   0.00000
       y     0.00000   1.24638   0.00000
       z     0.00000   0.00000   1.24638

  Static refractive indices :

    1 =    1.60827      2 =    1.60827      3 =    1.60827

  High frequency refractive indices :

    1 =    1.11641      2 =    1.11641      3 =    1.11641

  Time to end of optimisation =       0.0136 seconds

*  Defect calculation for configuration   1 :                                  *

  **** No defects for configuration number    1 ****

  Timing analysis for GULP :

  Task / Subroutine                                          Time (Seconds)
  Calculation of reciprocal space energy and derivatives          0.0002
  Calculation of reciprocal space energy using symmetry           0.0002
  Calculation of real space energy and derivatives                0.0012
  Calculation of real space energy using symmetry                 0.0053
  Symmetry generation of equivalent positions                     0.0022

  Dump file written as Na3OCl.grs

  Job Finished at 16:43.09  5th July       2021