  Job Started  at 16:43.21  5th July       2021

  Number of CPUs =     1

  Total number of configurations input =      1

*  Input for Configuration =   1                                               *

  Formula = OClNa3

  Number of irreducible atoms/shells =       5

  Total number atoms/shells =       7

  Dimensionality = 3               :  Bulk

  Symmetry :

  Crystal family                   :  Cubic
  Crystal class  (Groth - 1921)    :  Cubic Hexakisoctahedral

  Space group (centrosymmetric)    :  P M 3 M

  Patterson group                  :  P m -3 m

  Cartesian lattice vectors (Angstroms) :

        4.504000    0.000000    0.000000
        0.000000    4.504000    0.000000
        0.000000    0.000000    4.504000

  Cell parameters (Angstroms/Degrees):

  a =       4.5040    alpha =  90.0000
  b =       4.5040    beta  =  90.0000
  c =       4.5040    gamma =  90.0000

  Initial cell volume =          91.368216 Angs**3

  Temperature of configuration =   0.00     K

  Pressure of configuration =         0.000 GPa

  Fractional coordinates of asymmetric unit :

   No.  Atomic       x           y          z         Charge      Occupancy
        Label      (Frac)      (Frac)     (Frac)        (e)         (Frac)
      1 O     c    0.000000    0.000000    0.000000     0.48900    1.000000
      2 Cl    c    0.500000    0.500000    0.500000     0.61500    1.000000
      3 Na    c    0.500000    0.000000    0.000000     0.67000    1.000000
      4 O     s    0.000000    0.000000    0.000000    -1.82900    1.000000
      5 Cl    s    0.500000    0.500000    0.500000    -1.28500    1.000000

  Constraints :

  Constraint no.      Unconstrained     Constrained    Coefficient    Offset
                         Variable         Variable
           1              Strain 1        Strain 2       1.00000      0.0000
           2              Strain 1        Strain 3       1.00000      0.0000

*  General input information                                                   *

  Species output for all configurations :

  Species    Type    Atomic    Atomic    Charge       Radii (Angs)     Library
                     Number     Mass       (e)     Cova   Ionic  VDW   Symbol
    Na       Core       11      22.99   0.670000   0.970  0.000  2.300
    O        Core        8      16.00   0.489000   0.730  0.000  1.360
    O        Shell       8       0.00  -1.829000   0.730  0.000  1.360
    Cl       Core       17      35.45   0.615000   0.990  0.000  1.650
    Cl       Shell      17       0.00  -1.285000   0.990  0.000  1.650

  Lattice summation method               =    Ewald          (3-D)
                                         =    Parry          (2-D)
                                         =    Saunders et al (1-D)
  Accuracy factor for lattice sums       =   12.000

  Analytic derivatives to be used

  Time limit = Infinity

  Maximum range for interatomic potentials =    100000.000000 Angstroms

  General interatomic potentials :

Atom  Types   Potential      Parameter       Value         Units   Cutoffs(Ang)
  1     2                                                            Min /  Max
O    c O    s Spring (c-s)  Spring k 2       34.450000    eV*Ang^-2 0.000  0.800
                            Spring k 4       0.0000000    eV*Ang^-4
Cl   c Cl   s Spring (c-s)  Spring k 2       28.250000    eV*Ang^-2 0.000  0.800
                            Spring k 4       0.0000000    eV*Ang^-4
Na   c Na   c Buckingham    Buckingham A     996.28210    eV        0.000 12.000
                            Buckingham rho  0.28830000    Ang
                            Buckingham C     0.0000000    eV*Ang^6
Na   c O    s Buckingham    Buckingham A     12439.222    eV        0.000 12.000
                            Buckingham rho  0.20150000    Ang
                            Buckingham C     0.0000000    eV*Ang^6
Na   c Cl   s Buckingham    Buckingham A     20907.738    eV        0.000 12.000
                            Buckingham rho  0.21660000    Ang
                            Buckingham C     0.0000000    eV*Ang^6
O    s O    s Buckingham    Buckingham A     35546.853    eV        0.000 12.000
                            Buckingham rho  0.12056000    Ang
                            Buckingham C     13.190000    eV*Ang^6
O    s Cl   s Buckingham    Buckingham A     47777.071    eV        0.000 12.000
                            Buckingham rho  0.24370000    Ang
                            Buckingham C     62.200000    eV*Ang^6
Cl   s Cl   s Buckingham    Buckingham A     35155.254    eV        0.000 12.000
                            Buckingham rho  0.21360000    Ang
                            Buckingham C     14.530000    eV*Ang^6

*  Output for configuration   1                                                *

  Components of energy :

  Interatomic potentials     =           1.21745275 eV
  Monopole - monopole (real) =          -4.50527050 eV
  Monopole - monopole (recip)=         -13.25862634 eV
  Monopole - monopole (total)=         -17.76389683 eV
  Total lattice energy       =         -16.54644409 eV
  Total lattice energy       =           -1596.4789 kJ/(mole unit cells)

  Number of variables =        1

  Maximum number of calculations  =          1000
  Maximum Hessian update interval =            10
  Maximum step size               =   1.000000000
  Maximum parameter tolerance     =   0.000010000
  Maximum function  tolerance     =   0.000010000
  Maximum gradient  tolerance     =   0.001000000
  Maximum gradient  component     =   0.010000000

  Symmetry constrained optimisation

  Symmetry used for second derivatives

  Cell parameters to be optimised using strains

  Newton-Raphson optimiser to be used

  BFGS hessian update to be used

  Lower half triangular hessian to be used

  Start of bulk optimisation :

  ** Hessian calculated **

  **** Optimisation achieved ****

  Final energy =     -16.57035847 eV
  Final Gnorm  =       0.00000012

  Components of energy :

  Interatomic potentials     =           1.49654868 eV
  Monopole - monopole (real) =          -4.58211982 eV
  Monopole - monopole (recip)=         -13.48478733 eV
  Monopole - monopole (total)=         -18.06690714 eV
  Total lattice energy       =         -16.57035847 eV
  Total lattice energy       =           -1598.7863 kJ/(mole unit cells)

  Final asymmetric unit coordinates :

   No.  Atomic        x           y           z         Radius
        Label       (Frac)      (Frac)      (Frac)       (Angs)
     1  O     c     0.000000    0.000000    0.000000    0.000000
     2  Cl    c     0.500000    0.500000    0.500000    0.000000
     3  Na    c     0.500000    0.000000    0.000000    0.000000
     4  O     s     0.000000    0.000000    0.000000    0.000000
     5  Cl    s     0.500000    0.500000    0.500000    0.000000

  Final Cartesian lattice vectors (Angstroms) :

        4.428461    0.000000    0.000000
        0.000000    4.428461    0.000000
        0.000000    0.000000    4.428461

  Final cell parameters and derivatives :

       a            4.428461 Angstrom     dE/de1(xx)     0.000000 eV/strain
       b            4.428461 Angstrom     dE/de2(yy)     0.000000 eV/strain
       c            4.428461 Angstrom     dE/de3(zz)     0.000000 eV/strain
       alpha       90.000000 Degrees      dE/de4(yz)     0.000000 eV/strain
       beta        90.000000 Degrees      dE/de5(xz)     0.000000 eV/strain
       gamma       90.000000 Degrees      dE/de6(xy)     0.000000 eV/strain

  Primitive cell volume =            86.847723 Angs**3

  Density of cell =      2.302482 g/cm**3

  Non-primitive cell volume =            86.847723 Angs**3

  Final internal derivatives :

   No.  Atomic          a             b             c           Radius
        Label          (eV)          (eV)          (eV)        (eV/Angs)
      1 O     c       0.000000      0.000000      0.000000      0.000000
      2 Cl    c       0.000000      0.000000      0.000000      0.000000
      3 Na    c       0.000000      0.000000      0.000000      0.000000
      4 O     s       0.000000      0.000000      0.000000      0.000000
      5 Cl    s       0.000000      0.000000      0.000000      0.000000
  Maximum abs         0.000000      0.000000      0.000000      0.000000

  Comparison of initial and final structures :

  Parameter   Initial value   Final value   Difference    Units      Percent
    Volume        91.368216     86.847723    -4.520493    Angs**3     -4.95
    a              4.504000      4.428461    -0.075539    Angstroms   -1.68
    b              4.504000      4.428461    -0.075539    Angstroms   -1.68
    c              4.504000      4.428461    -0.075539    Angstroms   -1.68
    alpha         90.000000     90.000000     0.000000    Degrees      0.00
    beta          90.000000     90.000000     0.000000    Degrees      0.00
    gamma         90.000000     90.000000     0.000000    Degrees      0.00
      1 x          0.000000      0.000000     0.000000    Fractional   0.00
      1 y          0.000000      0.000000     0.000000    Fractional   0.00
      1 z          0.000000      0.000000     0.000000    Fractional   0.00
      2 x          0.500000      0.500000     0.000000    Fractional   0.00
      2 y          0.500000      0.500000     0.000000    Fractional   0.00
      2 z          0.500000      0.500000     0.000000    Fractional   0.00
      3 x          0.500000      0.500000     0.000000    Fractional   0.00
      3 y          0.000000      0.000000     0.000000    Fractional   0.00
      3 z          0.000000      0.000000     0.000000    Fractional   0.00
      4 x          0.000000      0.000000     0.000000    Fractional   0.00
      4 y          0.000000      0.000000     0.000000    Fractional   0.00
      4 z          0.000000      0.000000     0.000000    Fractional   0.00
      5 x          0.500000      0.500000     0.000000    Fractional   0.00
      5 y          0.500000      0.500000     0.000000    Fractional   0.00
      5 z          0.500000      0.500000     0.000000    Fractional   0.00

  Born effective charge tensors :

  Atom             x           y             z
    1 O     x      -1.0805     -0.0000      0.0000
            y      -0.0000     -1.0805     -0.0000
            z       0.0000     -0.0000     -1.0805
    2 Cl    x      -0.6995      0.0000      0.0000
            y       0.0000     -0.6995      0.0000
            z       0.0000      0.0000     -0.6995
    3 Na    x       0.4827     -0.0000     -0.0000
            y      -0.0000      0.6486     -0.0000
            z      -0.0000     -0.0000      0.6486

  Elastic Constant Matrix: (Units=GPa)

  Indices      1         2         3         4         5         6
       1     77.0757   16.0262   16.0262    0.0000    0.0000    0.0000
       2     16.0262   77.0757   16.0262    0.0000    0.0000    0.0000
       3     16.0262   16.0262   77.0757   -0.0000   -0.0000   -0.0000
       4      0.0000    0.0000   -0.0000   16.0262    0.0000   -0.0000
       5      0.0000    0.0000   -0.0000    0.0000   16.0262    0.0000
       6      0.0000    0.0000   -0.0000   -0.0000    0.0000   16.0262

  Elastic Compliance Matrix: (Units=1/GPa)

[...]
    132 z          6.642691      6.615569    -0.027123    Cartesian   -0.41
    133 x         11.071152     11.079626     0.008474    Cartesian    0.08
    133 y         -4.428461     -4.450607    -0.022146    Cartesian    0.50
    133 z          4.428461      4.442377     0.013916    Cartesian    0.31
    134 x         -2.214230     -2.218303    -0.004073    Cartesian    0.18
    134 y          8.856922      8.866547     0.009625    Cartesian    0.11
    134 z          8.856922      8.878792     0.021870    Cartesian    0.25
    135 x         -6.642691     -6.651389    -0.008698    Cartesian    0.13
    135 y          8.856922      8.882261     0.025339    Cartesian    0.29
    135 z          4.428461      4.445335     0.016874    Cartesian    0.38
    136 x          6.642691      6.647040     0.004348    Cartesian    0.07
    136 y         -4.428461     -4.439067    -0.010606    Cartesian    0.24
    136 z          8.856922      8.877227     0.020305    Cartesian    0.23
    137 x          2.214230      2.214656     0.000426    Cartesian    0.02
    137 y         -2.214230     -2.212776     0.001455    Cartesian   -0.07
    137 z         11.071152     11.050015    -0.021137    Cartesian   -0.19
    138 x          6.642691      6.617260    -0.025432    Cartesian   -0.38
    138 y         -6.642691     -6.616979     0.025713    Cartesian   -0.39
    138 z          6.642691      6.615678    -0.027013    Cartesian   -0.41
    139 x          6.642691      6.653162     0.010471    Cartesian    0.16
    139 y         -8.856922     -8.943206    -0.086285    Cartesian    0.97
    139 z          0.000000      0.000000     0.000000    Cartesian    0.00
    140 x          2.214230      2.216055     0.001824    Cartesian    0.08
    140 y         -8.856922     -8.885079    -0.028158    Cartesian    0.32
    140 z          4.428461      4.439563     0.011102    Cartesian    0.25
    141 x         -2.214230     -2.216419    -0.002189    Cartesian    0.10
    141 y         -4.428461     -4.435031    -0.006570    Cartesian    0.15
    141 z          8.856922      8.874350     0.017428    Cartesian    0.20
    142 x         -2.214230     -2.210897     0.003334    Cartesian   -0.15
    142 y         -6.642691     -6.612979     0.029713    Cartesian   -0.45
    142 z          6.642691      6.599307    -0.043384    Cartesian   -0.65
    143 x         -2.214230     -2.222270    -0.008039    Cartesian    0.36
    143 y         -8.856922     -8.944338    -0.087416    Cartesian    0.99
    143 z          0.000000      0.000000     0.000000    Cartesian    0.00
    144 x         -6.642691     -6.649671    -0.006980    Cartesian    0.11
    144 y         -4.428461     -4.445811    -0.017350    Cartesian    0.39
    144 z          4.428461      4.458022     0.029561    Cartesian    0.67
    145 x          2.252000      2.252000     0.000000    Cartesian    0.00
    145 y          2.252000      2.252000     0.000000    Cartesian    0.00
    145 z          0.000000      0.000000     0.000000    Cartesian    0.00
    146 x          2.214230      2.193923    -0.020307    Cartesian   -0.92
    146 y          2.214230      2.193923    -0.020307    Cartesian   -0.92
    146 z         -2.214230     -3.191143    -0.976913    Cartesian   44.12
    147 x          4.428461      4.573864     0.145404    Cartesian    3.28
    147 y          0.000000     -0.164543    -0.164543    Cartesian    0.00
    147 z          0.000000      0.000000     0.000000    Cartesian    0.00
    148 x          2.214230      2.509504     0.295274    Cartesian   13.34
    148 y          6.642691      6.323502    -0.319189    Cartesian   -4.81
    148 z         -2.214230     -1.960283     0.253947    Cartesian  -11.47
    149 x          2.214230      1.948791    -0.265439    Cartesian  -11.99
    149 y         -2.214230     -1.873173     0.341057    Cartesian  -15.40
    149 z         -2.214230     -1.958691     0.255540    Cartesian  -11.54
    150 x          4.428461      4.430339     0.001878    Cartesian    0.04
    150 y          4.428461      4.430339     0.001878    Cartesian    0.04
    150 z          4.428461      4.597247     0.168787    Cartesian    3.81
    151 x          4.428461      4.478467     0.050006    Cartesian    1.13
    151 y          0.000000     -0.054819    -0.054819    Cartesian    0.00
    151 z          4.428461      4.515922     0.087461    Cartesian    1.97
    152 x          0.000000     -0.017083    -0.017083    Cartesian    0.00
    152 y          0.000000     -0.017083    -0.017083    Cartesian    0.00
    152 z          4.428461      4.615899     0.187438    Cartesian    4.23
    153 x          6.642691      6.277390    -0.365301    Cartesian   -5.50
    153 y          6.642691      6.277390    -0.365301    Cartesian   -5.50
    153 z         -2.214230     -1.942068     0.272163    Cartesian  -12.29
    154 x          2.214230      2.210164    -0.004066    Cartesian   -0.18
    154 y          2.214230      2.210164    -0.004066    Cartesian   -0.18
    154 z          6.642691      6.825669     0.182978    Cartesian    2.75
    155 x          6.642691      6.678623     0.035932    Cartesian    0.54
    155 y         -2.214230     -2.260352    -0.046122    Cartesian    2.08
    155 z         -2.214230     -2.264299    -0.050069    Cartesian    2.26
    156 x         -2.214230     -1.801857     0.412373    Cartesian  -18.62
    156 y         -2.214230     -1.801857     0.412373    Cartesian  -18.62
    156 z         -2.214230     -1.911576     0.302655    Cartesian  -13.67
    157 x          4.428461      4.419773    -0.008688    Cartesian   -0.20
    157 y          8.856922      8.964562     0.107640    Cartesian    1.22
    157 z          0.000000      0.000000     0.000000    Cartesian    0.00
    158 x          8.856922      8.910026     0.053104    Cartesian    0.60
    158 y          0.000000     -0.013684    -0.013684    Cartesian    0.00
    158 z          0.000000      0.000000     0.000000    Cartesian    0.00
    159 x          4.428461      4.430902     0.002441    Cartesian    0.06
    159 y         -4.428461     -4.491331    -0.062870    Cartesian    1.42
    159 z          0.000000      0.000000     0.000000    Cartesian    0.00
    160 x          0.000000      0.010636     0.010636    Cartesian    0.00
    160 y         -4.428461     -4.551088    -0.122628    Cartesian    2.77
    160 z          0.000000      0.000000     0.000000    Cartesian    0.00
    161 x          2.214230      2.179018    -0.035213    Cartesian   -1.59
    161 y          6.642691      6.683975     0.041284    Cartesian    0.62
    161 z          6.642691      6.656810     0.014118    Cartesian    0.21
    162 x          2.214230      2.241682     0.027452    Cartesian    1.24
    162 y         -2.214230     -2.264847    -0.050616    Cartesian    2.29
    162 z          6.642691      6.656475     0.013784    Cartesian    0.21
    163 x          4.428461      4.425007    -0.003454    Cartesian   -0.08
    163 y          8.856922      8.843567    -0.013354    Cartesian   -0.15
    163 z          4.428461      4.418360    -0.010100    Cartesian   -0.23
    164 x          8.856922      8.863520     0.006598    Cartesian    0.07
    164 y          0.000000      0.004765     0.004765    Cartesian    0.00
    164 z          4.428461      4.418128    -0.010333    Cartesian   -0.23
    165 x          4.428461      4.422934    -0.005527    Cartesian   -0.12
    165 y         -4.428461     -4.438225    -0.009764    Cartesian    0.22
    165 z          4.428461      4.418443    -0.010018    Cartesian   -0.23
    166 x          0.000000      0.001432     0.001432    Cartesian    0.00
    166 y         -4.428461     -4.420736     0.007725    Cartesian   -0.17
    166 z          4.428461      4.418649    -0.009812    Cartesian   -0.22
    167 x          2.214230      2.212632    -0.001599    Cartesian   -0.07
    167 y         11.071152     11.038243    -0.032909    Cartesian   -0.30
    167 z         -2.214230     -2.208573     0.005657    Cartesian   -0.26
    168 x          6.642691      6.690973     0.048281    Cartesian    0.73
    168 y          6.642691      6.690973     0.048281    Cartesian    0.73
    168 z          6.642691      6.614604    -0.028087    Cartesian   -0.42
    169 x          6.642691      6.669220     0.026529    Cartesian    0.40
    169 y         -2.214230     -2.244890    -0.030660    Cartesian    1.38
    169 z          6.642691      6.616167    -0.026524    Cartesian   -0.40
    170 x          2.214230      2.205876    -0.008355    Cartesian   -0.38
    170 y         -6.642691     -6.624544     0.018147    Cartesian   -0.27
    170 z         -2.214230     -2.227281    -0.013051    Cartesian    0.59
    171 x         -2.214230     -2.268033    -0.053803    Cartesian    2.43
    171 y         -2.214230     -2.268033    -0.053803    Cartesian    2.43
    171 z          6.642691      6.608860    -0.033831    Cartesian   -0.51
    172 x          8.856922      8.853416    -0.003506    Cartesian   -0.04
    172 y          8.856922      8.853416    -0.003506    Cartesian   -0.04
    172 z          0.000000      0.000000     0.000000    Cartesian    0.00
    173 x          4.428461      4.439726     0.011266    Cartesian    0.25
    173 y          4.428461      4.439726     0.011266    Cartesian    0.25
    173 z          8.856922      8.899851     0.042929    Cartesian    0.48
    174 x          4.428461      4.440790     0.012329    Cartesian    0.28
    174 y          0.000000     -0.013309    -0.013309    Cartesian    0.00
    174 z          8.856922      8.880454     0.023533    Cartesian    0.27
    175 x          8.856922      8.869863     0.012941    Cartesian    0.15
    175 y         -4.428461     -4.437801    -0.009340    Cartesian    0.21
    175 z          0.000000      0.000000     0.000000    Cartesian    0.00
    176 x          0.000000     -0.012100    -0.012100    Cartesian    0.00
    176 y          0.000000     -0.012100    -0.012100    Cartesian    0.00
    176 z          8.856922      8.908840     0.051919    Cartesian    0.59
    177 x         -4.428461     -4.419268     0.009193    Cartesian   -0.21
    177 y         -4.428461     -4.419268     0.009193    Cartesian   -0.21
    177 z          0.000000      0.000000     0.000000    Cartesian    0.00
    178 x          6.642691      6.653920     0.011228    Cartesian    0.17
    178 y         11.071152     11.023559    -0.047593    Cartesian   -0.43
    178 z         -2.214230     -2.207826     0.006405    Cartesian   -0.29
    179 x         11.071152     11.055724    -0.015428    Cartesian   -0.14
    179 y         -2.214230     -2.191369     0.022862    Cartesian   -1.03
    179 z         -2.214230     -2.204665     0.009565    Cartesian   -0.43
    180 x          6.642691      6.623493    -0.019199    Cartesian   -0.29
    180 y         -6.642691     -6.628735     0.013956    Cartesian   -0.21
    180 z         -2.214230     -2.204457     0.009774    Cartesian   -0.44
    181 x         -2.214230     -2.228912    -0.014682    Cartesian    0.66
    181 y         -6.642691     -6.588707     0.053984    Cartesian   -0.81
    181 z         -2.214230     -2.200435     0.013795    Cartesian   -0.62
    182 x          8.856922      8.851090    -0.005832    Cartesian   -0.07
    182 y          8.856922      8.851090    -0.005832    Cartesian   -0.07
    182 z          4.428461      4.418325    -0.010136    Cartesian   -0.23
    183 x          8.856922      8.867587     0.010665    Cartesian    0.12
    183 y         -4.428461     -4.439731    -0.011270    Cartesian    0.25
    183 z          4.428461      4.431203     0.002743    Cartesian    0.06
    184 x         -4.428461     -4.424459     0.004002    Cartesian   -0.09
    184 y         -4.428461     -4.424459     0.004002    Cartesian   -0.09
    184 z          4.428461      4.417338    -0.011123    Cartesian   -0.25
    185 x          2.214230      2.221176     0.006946    Cartesian    0.31
    185 y         11.071152     11.049573    -0.021579    Cartesian   -0.19
    185 z          6.642691      6.611371    -0.031320    Cartesian   -0.47
    186 x          2.214230      2.213659    -0.000572    Cartesian   -0.03
    186 y          2.214230      2.213659    -0.000572    Cartesian   -0.03
    186 z         11.071152     11.085384     0.014232    Cartesian    0.13
    187 x          2.214230      2.202920    -0.011311    Cartesian   -0.51
    187 y         -6.642691     -6.623236     0.019455    Cartesian   -0.29
    187 z          6.642691      6.612016    -0.030675    Cartesian   -0.46
    188 x          4.428461      4.429140     0.000679    Cartesian    0.02
    188 y         13.285383     13.311862     0.026480    Cartesian    0.20
    188 z          0.000000      0.000000     0.000000    Cartesian    0.00
    189 x          4.428461      4.428524     0.000063    Cartesian    0.00
    189 y          8.856922      8.850328    -0.006594    Cartesian   -0.07
    189 z          8.856922      8.858304     0.001382    Cartesian    0.02
    190 x         13.285383     13.300890     0.015508    Cartesian    0.12
    190 y          0.000000      0.001532     0.001532    Cartesian    0.00
    190 z          0.000000      0.000000     0.000000    Cartesian    0.00
    191 x          8.856922      8.857022     0.000101    Cartesian    0.00
    191 y          0.000000     -0.002710    -0.002710    Cartesian    0.00
    191 z          8.856922      8.859014     0.002093    Cartesian    0.02
    192 x          4.428461      4.430924     0.002464    Cartesian    0.06
    192 y         -4.428461     -4.428548    -0.000087    Cartesian    0.00
    192 z          8.856922      8.859374     0.002452    Cartesian    0.03
    193 x          4.428461      4.436830     0.008369    Cartesian    0.19
    193 y         -8.856922     -8.871065    -0.014143    Cartesian    0.16
    193 z          0.000000      0.000000     0.000000    Cartesian    0.00
    194 x          0.000000     -0.001037    -0.001037    Cartesian    0.00
    194 y         -4.428461     -4.422947     0.005514    Cartesian   -0.12
    194 z          8.856922      8.859077     0.002155    Cartesian    0.02
    195 x          0.000000     -0.005178    -0.005178    Cartesian    0.00
    195 y         -8.856922     -8.885583    -0.028661    Cartesian    0.32
    195 z          0.000000      0.000000     0.000000    Cartesian    0.00
    196 x          6.642691      6.636685    -0.006006    Cartesian   -0.09
    196 y         11.071152     11.039748    -0.031404    Cartesian   -0.28
    196 z          6.642691      6.598796    -0.043895    Cartesian   -0.66
    197 x          2.214230      2.213226    -0.001005    Cartesian   -0.05
    197 y          6.642691      6.637649    -0.005042    Cartesian   -0.08
    197 z         11.071152     11.048034    -0.023118    Cartesian   -0.21
    198 x         11.071152     11.042469    -0.028683    Cartesian   -0.26
    198 y         -2.214230     -2.190336     0.023894    Cartesian   -1.08
    198 z          6.642691      6.614308    -0.028383    Cartesian   -0.43
    199 x          2.214230      2.214293     0.000063    Cartesian    0.00
    199 y         -2.214230     -2.212776     0.001455    Cartesian   -0.07
    199 z         11.071152     11.048058    -0.023094    Cartesian   -0.21
    200 x          6.642691      6.616105    -0.026586    Cartesian   -0.40
    200 y         -6.642691     -6.615970     0.026721    Cartesian   -0.40
    200 z          6.642691      6.614349    -0.028342    Cartesian   -0.43
    201 x         -2.214230     -2.210875     0.003355    Cartesian   -0.15
    201 y         -6.642691     -6.611621     0.031070    Cartesian   -0.47
    201 z          6.642691      6.596892    -0.045800    Cartesian   -0.69

  Time to end of optimisation  =       32.3777 seconds

  Timing analysis for GULP :

  Task / Subroutine                                          Time (Seconds)
  Calculation of reciprocal space energy and derivatives          0.0009
  Calculation of reciprocal space energy using symmetry           0.0014
  Calculation of real space energy and derivatives                0.0045
  Calculation of real space energy using symmetry                 0.0142
  Calculation for region 1 energy and derivatives (2-b)          17.5990
  Calculation for region 2a energy                                9.8712
  Calculation for region 2b energy                                0.0080
  Calculation and manipulation of Hessian matrix                  4.2135
  Calculation of matrix inversion                                 0.5252
  Symmetry generation of equivalent positions                     0.0055

  Dump file written as Na3OCl.grs

  Job Finished at 16:43.54  5th July       2021