  Job Started  at 16:43.10  5th July       2021

  Number of CPUs =     1

  Total number of configurations input =      1

*  Input for Configuration =   1                                               *

  Formula = ClONa3

  Number of irreducible atoms/shells =       5

  Total number atoms/shells =       7

  Dimensionality = 3               :  Bulk

  Symmetry :

  Crystal family                   :  Cubic
  Crystal class  (Groth - 1921)    :  Cubic Hexakisoctahedral

  Space group (centrosymmetric)    :  P M 3 M

  Patterson group                  :  P m -3 m

  Cartesian lattice vectors (Angstroms) :

        4.504000    0.000000    0.000000
        0.000000    4.504000    0.000000
        0.000000    0.000000    4.504000

  Cell parameters (Angstroms/Degrees):

  a =       4.5040    alpha =  90.0000
  b =       4.5040    beta  =  90.0000
  c =       4.5040    gamma =  90.0000

  Initial cell volume =          91.368216 Angs**3

  Temperature of configuration =   0.00     K

  Pressure of configuration =         0.000 GPa

  Fractional coordinates of asymmetric unit :

   No.  Atomic       x           y          z         Charge      Occupancy
        Label      (Frac)      (Frac)     (Frac)        (e)         (Frac)
      1 Cl    c    0.000000    0.000000    0.000000     0.61500    1.000000
      2 O     c    0.500000    0.500000    0.500000     0.48900    1.000000
      3 Na    c    0.500000    0.500000    0.000000     0.67000    1.000000
      4 Cl    s    0.000000    0.000000    0.000000    -1.28500    1.000000
      5 O     s    0.500000    0.500000    0.500000    -1.82900    1.000000

  Constraints :

  Constraint no.      Unconstrained     Constrained    Coefficient    Offset
                         Variable         Variable
           1              Strain 1        Strain 2       1.00000      0.0000
           2              Strain 1        Strain 3       1.00000      0.0000

*  General input information                                                   *

  Species output for all configurations :

  Species    Type    Atomic    Atomic    Charge       Radii (Angs)     Library
                     Number     Mass       (e)     Cova   Ionic  VDW   Symbol
    Na       Core       11      22.99   0.670000   0.970  0.000  2.300
    O        Core        8      16.00   0.489000   0.730  0.000  1.360
    O        Shell       8       0.00  -1.829000   0.730  0.000  1.360
    Cl       Core       17      35.45   0.615000   0.990  0.000  1.650
    Cl       Shell      17       0.00  -1.285000   0.990  0.000  1.650

  Lattice summation method               =    Ewald          (3-D)
                                         =    Parry          (2-D)
                                         =    Saunders et al (1-D)
  Accuracy factor for lattice sums       =   12.000

  Analytic derivatives to be used

  Time limit = Infinity

  Maximum range for interatomic potentials =    100000.000000 Angstroms

  General interatomic potentials :

Atom  Types   Potential      Parameter       Value         Units   Cutoffs(Ang)
  1     2                                                            Min /  Max
O    c O    s Spring (c-s)  Spring k 2       34.450000    eV*Ang^-2 0.000  0.800
                            Spring k 4       0.0000000    eV*Ang^-4
Cl   c Cl   s Spring (c-s)  Spring k 2       28.250000    eV*Ang^-2 0.000  0.800
                            Spring k 4       0.0000000    eV*Ang^-4
Na   c Na   c Buckingham    Buckingham A     996.28210    eV        0.000 12.000
                            Buckingham rho  0.28830000    Ang
                            Buckingham C     0.0000000    eV*Ang^6
Na   c O    s Buckingham    Buckingham A     12439.222    eV        0.000 12.000
                            Buckingham rho  0.20150000    Ang
                            Buckingham C     0.0000000    eV*Ang^6
Na   c Cl   s Buckingham    Buckingham A     20907.738    eV        0.000 12.000
                            Buckingham rho  0.21660000    Ang
                            Buckingham C     0.0000000    eV*Ang^6
O    s O    s Buckingham    Buckingham A     35546.853    eV        0.000 12.000
                            Buckingham rho  0.12056000    Ang
                            Buckingham C     13.190000    eV*Ang^6
O    s Cl   s Buckingham    Buckingham A     47777.071    eV        0.000 12.000
                            Buckingham rho  0.24370000    Ang
                            Buckingham C     62.200000    eV*Ang^6
Cl   s Cl   s Buckingham    Buckingham A     35155.254    eV        0.000 12.000
                            Buckingham rho  0.21360000    Ang
                            Buckingham C     14.530000    eV*Ang^6

*  Output for configuration   1                                                *

  Components of energy :

  Interatomic potentials     =           1.21745275 eV
  Monopole - monopole (real) =          -4.50527050 eV
  Monopole - monopole (recip)=         -13.25862634 eV
  Monopole - monopole (total)=         -17.76389683 eV
  Total lattice energy       =         -16.54644409 eV
  Total lattice energy       =           -1596.4789 kJ/(mole unit cells)

  Number of variables =        1

  Maximum number of calculations  =          1000
  Maximum Hessian update interval =            10
  Maximum step size               =   1.000000000
  Maximum parameter tolerance     =   0.000010000
  Maximum function  tolerance     =   0.000010000
  Maximum gradient  tolerance     =   0.001000000
  Maximum gradient  component     =   0.010000000

  Symmetry constrained optimisation

  Symmetry used for second derivatives

  Cell parameters to be optimised using strains

  Newton-Raphson optimiser to be used

  BFGS hessian update to be used

  Lower half triangular hessian to be used

  Start of bulk optimisation :

  ** Hessian calculated **

  **** Optimisation achieved ****

  Final energy =     -16.57035847 eV
  Final Gnorm  =       0.00000012

  Components of energy :

  Interatomic potentials     =           1.49654868 eV
  Monopole - monopole (real) =          -4.58211982 eV
  Monopole - monopole (recip)=         -13.48478733 eV
  Monopole - monopole (total)=         -18.06690714 eV
  Total lattice energy       =         -16.57035847 eV
  Total lattice energy       =           -1598.7863 kJ/(mole unit cells)

  Final asymmetric unit coordinates :

   No.  Atomic        x           y           z         Radius
        Label       (Frac)      (Frac)      (Frac)       (Angs)
     1  Cl    c     0.000000    0.000000    0.000000    0.000000
     2  O     c     0.500000    0.500000    0.500000    0.000000
     3  Na    c     0.500000    0.500000    0.000000    0.000000
     4  Cl    s     0.000000    0.000000    0.000000    0.000000
     5  O     s     0.500000    0.500000    0.500000    0.000000

  Final Cartesian lattice vectors (Angstroms) :

        4.428461    0.000000    0.000000
        0.000000    4.428461    0.000000
        0.000000    0.000000    4.428461

  Final cell parameters and derivatives :

       a            4.428461 Angstrom     dE/de1(xx)     0.000000 eV/strain
       b            4.428461 Angstrom     dE/de2(yy)     0.000000 eV/strain
       c            4.428461 Angstrom     dE/de3(zz)     0.000000 eV/strain
       alpha       90.000000 Degrees      dE/de4(yz)     0.000000 eV/strain
       beta        90.000000 Degrees      dE/de5(xz)     0.000000 eV/strain
       gamma       90.000000 Degrees      dE/de6(xy)     0.000000 eV/strain

  Primitive cell volume =            86.847723 Angs**3

  Density of cell =      2.302482 g/cm**3

  Non-primitive cell volume =            86.847723 Angs**3

  Final internal derivatives :

   No.  Atomic          a             b             c           Radius
        Label          (eV)          (eV)          (eV)        (eV/Angs)
      1 Cl    c       0.000000      0.000000      0.000000      0.000000
      2 O     c       0.000000      0.000000      0.000000      0.000000
      3 Na    c       0.000000      0.000000      0.000000      0.000000
      4 Cl    s       0.000000      0.000000      0.000000      0.000000
      5 O     s       0.000000      0.000000      0.000000      0.000000
  Maximum abs         0.000000      0.000000      0.000000      0.000000

  Comparison of initial and final structures :

  Parameter   Initial value   Final value   Difference    Units      Percent
    Volume        91.368216     86.847723    -4.520493    Angs**3     -4.95
    a              4.504000      4.428461    -0.075539    Angstroms   -1.68
    b              4.504000      4.428461    -0.075539    Angstroms   -1.68
    c              4.504000      4.428461    -0.075539    Angstroms   -1.68
    alpha         90.000000     90.000000     0.000000    Degrees      0.00
    beta          90.000000     90.000000     0.000000    Degrees      0.00
    gamma         90.000000     90.000000     0.000000    Degrees      0.00
      1 x          0.000000      0.000000     0.000000    Fractional   0.00
      1 y          0.000000      0.000000     0.000000    Fractional   0.00
      1 z          0.000000      0.000000     0.000000    Fractional   0.00
      2 x          0.500000      0.500000     0.000000    Fractional   0.00
      2 y          0.500000      0.500000     0.000000    Fractional   0.00
      2 z          0.500000      0.500000     0.000000    Fractional   0.00
      3 x          0.500000      0.500000     0.000000    Fractional   0.00
      3 y          0.500000      0.500000     0.000000    Fractional   0.00
      3 z          0.000000      0.000000     0.000000    Fractional   0.00
      4 x          0.000000      0.000000     0.000000    Fractional   0.00
      4 y          0.000000      0.000000     0.000000    Fractional   0.00
      4 z          0.000000      0.000000     0.000000    Fractional   0.00
      5 x          0.500000      0.500000     0.000000    Fractional   0.00
      5 y          0.500000      0.500000     0.000000    Fractional   0.00
      5 z          0.500000      0.500000     0.000000    Fractional   0.00

  Born effective charge tensors :

  Atom             x           y             z
    1 Cl    x      -0.6995     -0.0000     -0.0000
            y      -0.0000     -0.6995     -0.0000
            z      -0.0000     -0.0000     -0.6995
    2 O     x      -1.0805      0.0000      0.0000
            y       0.0000     -1.0805      0.0000
            z       0.0000      0.0000     -1.0805
    3 Na    x       0.6486      0.0000     -0.0000
            y       0.0000      0.6486      0.0000
            z      -0.0000      0.0000      0.4827

  Elastic Constant Matrix: (Units=GPa)

  Indices      1         2         3         4         5         6
       1     77.0757   16.0262   16.0262   -0.0000   -0.0000   -0.0000
       2     16.0262   77.0757   16.0262   -0.0000   -0.0000    0.0000
       3     16.0262   16.0262   77.0757    0.0000    0.0000    0.0000
       4     -0.0000   -0.0000    0.0000   16.0262    0.0000   -0.0000
       5     -0.0000   -0.0000    0.0000    0.0000   16.0262   -0.0000
       6     -0.0000    0.0000    0.0000   -0.0000   -0.0000   16.0262

  Elastic Compliance Matrix: (Units=1/GPa)

[...]
    59  O     s      -0.000538     -0.002160      0.000000      0.000000
    60  O     s       0.000000     -0.000392     -0.001429      0.000000
    61  Cl    s      -0.000949      0.000000     -0.000783      0.000000
    62  O     s      -0.000744      0.000000     -0.001210      0.000000
    63  O     s      -0.000687      0.000000      0.000000      0.000000
    64  Cl    s      -0.000291     -0.000890      0.000000      0.000000
    65  Cl    s      -0.000119     -0.001277      0.000000      0.000000
    66  O     s       0.000000     -0.000599     -0.000921      0.000000

  Comparison of initial and final region 1 :

  Parameter   Initial value   Final value   Difference    Units      Percent
      1 x          2.214230      2.214230     0.000000    Cartesian    0.00
      1 y          2.214230      2.214230     0.000000    Cartesian    0.00
      1 z          4.428461      4.673933     0.245472    Cartesian    5.54
      2 x          4.428461      4.125759    -0.302701    Cartesian   -6.84
      2 y          4.428461      4.125759    -0.302701    Cartesian   -6.84
      2 z          4.428461      4.125759    -0.302701    Cartesian   -6.84
      3 x          2.214230      2.214230     0.000000    Cartesian    0.00
      3 y          2.214230      2.214230     0.000000    Cartesian    0.00
      3 z          6.642691      6.795964     0.153272    Cartesian    2.31
      4 x          2.214230      2.214230     0.000000    Cartesian    0.00
      4 y          6.642691      6.781958     0.139267    Cartesian    2.10
      4 z          4.428461      4.445643     0.017182    Cartesian    0.39
      5 x          2.214230      2.214230     0.000000    Cartesian    0.00
      5 y          6.642691      6.649000     0.006308    Cartesian    0.09
      5 z          6.642691      6.649000     0.006308    Cartesian    0.09
      6 x          6.642691      6.704327     0.061635    Cartesian    0.93
      6 y          6.642691      6.704327     0.061635    Cartesian    0.93
      6 z          4.428461      4.430956     0.002495    Cartesian    0.06
      7 x          2.214230      2.214230     0.000000    Cartesian    0.00
      7 y          2.214230      2.214230     0.000000    Cartesian    0.00
      7 z          8.856922      8.962549     0.105627    Cartesian    1.19
      8 x          4.428461      4.435503     0.007042    Cartesian    0.16
      8 y          4.428461      4.435503     0.007042    Cartesian    0.16
      8 z          8.856922      8.818558    -0.038364    Cartesian   -0.43
      9 x          6.642691      6.636097    -0.006595    Cartesian   -0.10
      9 y          6.642691      6.636097    -0.006595    Cartesian   -0.10
      9 z          6.642691      6.636097    -0.006595    Cartesian   -0.10
     10 x          2.214230      2.214230     0.000000    Cartesian    0.00
     10 y          6.642691      6.681904     0.039213    Cartesian    0.59
     10 z          8.856922      8.880580     0.023658    Cartesian    0.27
     11 x          2.214230      2.214230     0.000000    Cartesian    0.00
     11 y          2.214230      2.214230     0.000000    Cartesian    0.00
     11 z         11.071152     11.133324     0.062172    Cartesian    0.56
     12 x          2.214230      2.214230     0.000000    Cartesian    0.00
     12 y         11.071152     11.143774     0.072621    Cartesian    0.66
     12 z          4.428461      4.434744     0.006283    Cartesian    0.14
     13 x          6.642691      6.659503     0.016812    Cartesian    0.25
     13 y          6.642691      6.659503     0.016812    Cartesian    0.25
     13 z          8.856922      8.864902     0.007981    Cartesian    0.09
     14 x          4.428461      4.415828    -0.012633    Cartesian   -0.29
     14 y          8.856922      8.826458    -0.030464    Cartesian   -0.34
     14 z          8.856922      8.826458    -0.030464    Cartesian   -0.34
     15 x          2.214230      2.214230     0.000000    Cartesian    0.00
     15 y          6.642691      6.645167     0.002475    Cartesian    0.04
     15 z         11.071152     11.082230     0.011078    Cartesian    0.10
     16 x          6.642691      6.650210     0.007519    Cartesian    0.11
     16 y         11.071152     11.095279     0.024127    Cartesian    0.22
     16 z          4.428461      4.431442     0.002981    Cartesian    0.07
     17 x          6.642691      6.644078     0.001387    Cartesian    0.02
     17 y          6.642691      6.644078     0.001387    Cartesian    0.02
     17 z         11.071152     11.073015     0.001863    Cartesian    0.02
     18 x          2.214230      2.214230     0.000000    Cartesian    0.00
     18 y         11.071152     11.098063     0.026911    Cartesian    0.24
     18 z          8.856922      8.863196     0.006274    Cartesian    0.07
     19 x          2.214230      2.214230     0.000000    Cartesian    0.00
     19 y          2.214230      2.214230     0.000000    Cartesian    0.00
     19 z         13.285383     13.328374     0.042992    Cartesian    0.32
     20 x          4.428461      4.427482    -0.000979    Cartesian   -0.02
     20 y          4.428461      4.427482    -0.000979    Cartesian   -0.02
     20 z         13.285383     13.267969    -0.017413    Cartesian   -0.13
     21 x          8.856922      8.831684    -0.025238    Cartesian   -0.28
     21 y          8.856922      8.831684    -0.025238    Cartesian   -0.28
     21 z          8.856922      8.831684    -0.025238    Cartesian   -0.28
     22 x          6.642691      6.648321     0.005629    Cartesian    0.08
     22 y         11.071152     11.086979     0.015827    Cartesian    0.14
     22 z          8.856922      8.860642     0.003721    Cartesian    0.04
     23 x          2.214230      2.214230     0.000000    Cartesian    0.00
     23 y          6.642691      6.665078     0.022387    Cartesian    0.34
     23 z         13.285383     13.298153     0.012770    Cartesian    0.10
     24 x          2.214230      2.214230     0.000000    Cartesian    0.00
     24 y         11.071152     11.071016    -0.000136    Cartesian   -0.00
     24 z         11.071152     11.071016    -0.000136    Cartesian   -0.00
     25 x         11.071152     11.084151     0.012999    Cartesian    0.12
     25 y         11.071152     11.084151     0.012999    Cartesian    0.12
     25 z          4.428461      4.429365     0.000904    Cartesian    0.02
     26 x          6.642691      6.653251     0.010560    Cartesian    0.16
     26 y          6.642691      6.653251     0.010560    Cartesian    0.16
     26 z         13.285383     13.291193     0.005811    Cartesian    0.04
     27 x          8.856922      8.845634    -0.011288    Cartesian   -0.13
     27 y         13.285383     13.265690    -0.019693    Cartesian   -0.15
     27 z          4.428461      4.424634    -0.003827    Cartesian   -0.09
     28 x          2.214230      2.214230     0.000000    Cartesian    0.00
     28 y          2.214230      2.214230     0.000000    Cartesian    0.00
     28 z         15.499613     15.519717     0.020104    Cartesian    0.13
     29 x          6.642691      6.642470    -0.000222    Cartesian   -0.00
     29 y         11.071152     11.071360     0.000208    Cartesian    0.00
     29 z         11.071152     11.071360     0.000208    Cartesian    0.00
     30 x          2.214230      2.214230     0.000000    Cartesian    0.00
     30 y         15.499613     15.524828     0.025215    Cartesian    0.16
     30 z          4.428461      4.430938     0.002477    Cartesian    0.06
     31 x          2.214230      2.214230     0.000000    Cartesian    0.00
     31 y          6.642691      6.644782     0.002091    Cartesian    0.03
     31 z         15.499613     15.502486     0.002873    Cartesian    0.02
     32 x          6.642691      6.645085     0.002393    Cartesian    0.04
     32 y         15.499613     15.508663     0.009050    Cartesian    0.06
     32 z          4.428461      4.430085     0.001625    Cartesian    0.04
     33 x         11.071152     11.078210     0.007058    Cartesian    0.06
     33 y         11.071152     11.078210     0.007058    Cartesian    0.06
     33 z          8.856922      8.857300     0.000378    Cartesian    0.00
     34 x          2.214230      2.214230     0.000000    Cartesian    0.00
     34 y         11.071152     11.080660     0.009508    Cartesian    0.09
     34 z         13.285383     13.287461     0.002079    Cartesian    0.02
     35 x          8.856922      8.848520    -0.008402    Cartesian   -0.09
     35 y          8.856922      8.848520    -0.008402    Cartesian   -0.09
     35 z         13.285383     13.267437    -0.017945    Cartesian   -0.14
     36 x          6.642691      6.643925     0.001233    Cartesian    0.02
     36 y          6.642691      6.643925     0.001233    Cartesian    0.02
     36 z         15.499613     15.499731     0.000118    Cartesian    0.00
     37 x          2.214230      2.214230     0.000000    Cartesian    0.00
     37 y         15.499613     15.519437     0.019824    Cartesian    0.13
     37 z          8.856922      8.859131     0.002210    Cartesian    0.02
     38 x          6.642691      6.646362     0.003671    Cartesian    0.06
     38 y         11.071152     11.078598     0.007446    Cartesian    0.07
     38 z         13.285383     13.288549     0.003166    Cartesian    0.02
     39 x         11.071152     11.067946    -0.003206    Cartesian   -0.03
     39 y         11.071152     11.067946    -0.003206    Cartesian   -0.03
     39 z         11.071152     11.067946    -0.003206    Cartesian   -0.03
     40 x          2.214230      2.214230     0.000000    Cartesian    0.00
     40 y          2.214230      2.214230     0.000000    Cartesian    0.00
     40 z         17.713843     17.724998     0.011155    Cartesian    0.06
     41 x          6.642691      6.647075     0.004383    Cartesian    0.07
     41 y         15.499613     15.516386     0.016773    Cartesian    0.11
     41 z          8.856922      8.859224     0.002303    Cartesian    0.03
     42 x          4.428461      4.426617    -0.001844    Cartesian   -0.04
     42 y         17.713843     17.688770    -0.025073    Cartesian   -0.14
     42 z          4.428461      4.426617    -0.001844    Cartesian   -0.04
     43 x          4.428461      4.424400    -0.004061    Cartesian   -0.09
     43 y         13.285383     13.265308    -0.020074    Cartesian   -0.15
     43 z         13.285383     13.265308    -0.020074    Cartesian   -0.15
     44 x          2.214230      2.214230     0.000000    Cartesian    0.00
     44 y         11.071152     11.068715    -0.002437    Cartesian   -0.02
     44 z         15.499613     15.496178    -0.003435    Cartesian   -0.02
     45 x          4.428461      4.114820    -0.313641    Cartesian   -7.08
     45 y          4.428461      4.114820    -0.313641    Cartesian   -7.08
     45 z          4.428461      4.114820    -0.313641    Cartesian   -7.08
     46 x          2.214230      2.214230     0.000000    Cartesian    0.00
     46 y          2.214230      2.214230     0.000000    Cartesian    0.00
     46 z          6.642691      6.791798     0.149107    Cartesian    2.24
     47 x          2.214230      2.214230     0.000000    Cartesian    0.00
     47 y          6.642691      6.649256     0.006565    Cartesian    0.10
     47 z          6.642691      6.649256     0.006565    Cartesian    0.10
     48 x          4.428461      4.434873     0.006412    Cartesian    0.14
     48 y          4.428461      4.434873     0.006412    Cartesian    0.14
     48 z          8.856922      8.815289    -0.041633    Cartesian   -0.47
     49 x          6.642691      6.635894    -0.006797    Cartesian   -0.10
     49 y          6.642691      6.635894    -0.006797    Cartesian   -0.10
     49 z          6.642691      6.635894    -0.006797    Cartesian   -0.10
     50 x          2.214230      2.214230     0.000000    Cartesian    0.00
     50 y          2.214230      2.214230     0.000000    Cartesian    0.00
     50 z         11.071152     11.132001     0.060849    Cartesian    0.55
     51 x          4.428461      4.415086    -0.013375    Cartesian   -0.30
     51 y          8.856922      8.824363    -0.032559    Cartesian   -0.37
     51 z          8.856922      8.824363    -0.032559    Cartesian   -0.37
     52 x          2.214230      2.214230     0.000000    Cartesian    0.00
     52 y          6.642691      6.645177     0.002486    Cartesian    0.04
     52 z         11.071152     11.081992     0.010840    Cartesian    0.10
     53 x          6.642691      6.644061     0.001370    Cartesian    0.02
     53 y          6.642691      6.644061     0.001370    Cartesian    0.02
     53 z         11.071152     11.072844     0.001692    Cartesian    0.02
     54 x          4.428461      4.427119    -0.001342    Cartesian   -0.03
     54 y          4.428461      4.427119    -0.001342    Cartesian   -0.03
     54 z         13.285383     13.266363    -0.019019    Cartesian   -0.14
     55 x          8.856922      8.830490    -0.026432    Cartesian   -0.30
     55 y          8.856922      8.830490    -0.026432    Cartesian   -0.30
     55 z          8.856922      8.830490    -0.026432    Cartesian   -0.30
     56 x          2.214230      2.214230     0.000000    Cartesian    0.00
     56 y         11.071152     11.070896    -0.000256    Cartesian   -0.00
     56 z         11.071152     11.070896    -0.000256    Cartesian   -0.00
     57 x          8.856922      8.844994    -0.011927    Cartesian   -0.13
     57 y         13.285383     13.264614    -0.020769    Cartesian   -0.16
     57 z          4.428461      4.424320    -0.004141    Cartesian   -0.09
     58 x          2.214230      2.214230     0.000000    Cartesian    0.00
     58 y          2.214230      2.214230     0.000000    Cartesian    0.00
     58 z         15.499613     15.518999     0.019386    Cartesian    0.13
     59 x          6.642691      6.642484    -0.000207    Cartesian   -0.00
     59 y         11.071152     11.071240     0.000088    Cartesian    0.00
     59 z         11.071152     11.071240     0.000088    Cartesian    0.00
     60 x          2.214230      2.214230     0.000000    Cartesian    0.00
     60 y          6.642691      6.644861     0.002170    Cartesian    0.03
     60 z         15.499613     15.502368     0.002755    Cartesian    0.02
     61 x          8.856922      8.848120    -0.008802    Cartesian   -0.10
     61 y          8.856922      8.848120    -0.008802    Cartesian   -0.10
     61 z         13.285383     13.266596    -0.018786    Cartesian   -0.14
     62 x          6.642691      6.643905     0.001214    Cartesian    0.02
     62 y          6.642691      6.643905     0.001214    Cartesian    0.02
     62 z         15.499613     15.499690     0.000077    Cartesian    0.00
     63 x         11.071152     11.067700    -0.003453    Cartesian   -0.03
     63 y         11.071152     11.067700    -0.003453    Cartesian   -0.03
     63 z         11.071152     11.067700    -0.003453    Cartesian   -0.03
     64 x          4.428461      4.426455    -0.002006    Cartesian   -0.05
     64 y         17.713843     17.687690    -0.026153    Cartesian   -0.15
     64 z          4.428461      4.426455    -0.002006    Cartesian   -0.05
     65 x          4.428461      4.424217    -0.004244    Cartesian   -0.10
     65 y         13.285383     13.264486    -0.020897    Cartesian   -0.16
     65 z         13.285383     13.264486    -0.020897    Cartesian   -0.16
     66 x          2.214230      2.214230     0.000000    Cartesian    0.00
     66 y         11.071152     11.068412    -0.002740    Cartesian   -0.02
     66 z         15.499613     15.495829    -0.003784    Cartesian   -0.02

  Time to end of optimisation  =       21.1529 seconds

  Timing analysis for GULP :

  Task / Subroutine                                          Time (Seconds)
  Calculation of reciprocal space energy and derivatives          0.0004
  Calculation of reciprocal space energy using symmetry           0.0007
  Calculation of real space energy and derivatives                0.0021
  Calculation of real space energy using symmetry                 0.0067
  Calculation for region 1 energy and derivatives (2-b)          13.1942
  Calculation for region 2a energy                                7.0237
  Calculation for region 2b energy                                0.0003
  Calculation and manipulation of Hessian matrix                  0.1616
  Calculation of matrix inversion                                 0.0020
  Symmetry generation of equivalent positions                     0.0032

  Dump file written as Na3OCl.grs

  Job Finished at 16:43.33  5th July       2021