  Job Started  at 16:16.48  8th January    2021

  Number of CPUs =     1

  Total number of configurations input =      1

*  Input for Configuration =   1                                               *

  Formula = ClONa3

  Number of irreducible atoms/shells =       5

  Total number atoms/shells =       7

  Dimensionality = 3               :  Bulk

  Symmetry :

  Crystal family                   :  Cubic
  Crystal class  (Groth - 1921)    :  Cubic Hexakisoctahedral

  Space group (centrosymmetric)    :  P M 3 M

  Patterson group                  :  P m -3 m

  Cartesian lattice vectors (Angstroms) :

        4.504000    0.000000    0.000000
        0.000000    4.504000    0.000000
        0.000000    0.000000    4.504000

  Cell parameters (Angstroms/Degrees):

  a =       4.5040    alpha =  90.0000
  b =       4.5040    beta  =  90.0000
  c =       4.5040    gamma =  90.0000

  Initial cell volume =          91.368216 Angs**3

  Temperature of configuration =   0.00     K

  Pressure of configuration =         0.000 GPa

  Fractional coordinates of asymmetric unit :

   No.  Atomic       x           y          z         Charge      Occupancy
        Label      (Frac)      (Frac)     (Frac)        (e)         (Frac)
      1 Cl    c    0.000000    0.000000    0.000000     1.48500    1.000000
      2 O     c    0.500000    0.500000    0.500000     0.18300    1.000000
      3 Na    c    0.500000    0.500000    0.000000     1.00000    1.000000
      4 Cl    s    0.000000    0.000000    0.000000    -2.48500    1.000000
      5 O     s    0.500000    0.500000    0.500000    -2.18300    1.000000

  Constraints :

  Constraint no.      Unconstrained     Constrained    Coefficient    Offset
                         Variable         Variable
           1              Strain 1        Strain 2       1.00000      0.0000
           2              Strain 1        Strain 3       1.00000      0.0000

*  General input information                                                   *

  Species output for all configurations :

  Species    Type    Atomic    Atomic    Charge       Radii (Angs)     Library
                     Number     Mass       (e)     Cova   Ionic  VDW   Symbol
    Na       Core       11      22.99   1.000000   0.970  0.000  2.300
    O        Core        8      16.00   0.183000   0.730  0.000  1.360
    O        Shell       8       0.00  -2.183000   0.730  0.000  1.360
    Cl       Core       17      35.45   1.485000   0.990  0.000  1.650
    Cl       Shell      17       0.00  -2.485000   0.990  0.000  1.650
    Mg       Core       12      24.31   0.415000   1.100  0.000  0.000
    Mg       Shell      12       0.00   1.585000   1.100  0.000  0.000
    Ca       Core       20      40.08  -1.135000   0.990  0.000  0.000
    Ca       Shell      20       0.00   3.135000   0.990  0.000  0.000
    Sr       Core       38      87.62  -1.251000   1.120  0.000  0.000
    Sr       Shell      38       0.00   3.251000   1.120  0.000  0.000
    Ba       Core       56     137.33  -7.203000   1.340  0.000  0.000
    Ba       Shell      56       0.00   9.203000   1.340  0.000  0.000

  Lattice summation method               =    Ewald          (3-D)
                                         =    Parry          (2-D)
                                         =    Saunders et al (1-D)
  Accuracy factor for lattice sums       =   12.000

  Analytic derivatives to be used

  Time limit = Infinity

  Maximum range for interatomic potentials =    100000.000000 Angstroms

  General interatomic potentials :

Atom  Types   Potential      Parameter       Value         Units   Cutoffs(Ang)
  1     2                                                            Min /  Max
O    c O    s Spring (c-s)  Spring k 2       593.71600    eV*Ang^-2 0.000  0.800
                            Spring k 4       0.0000000    eV*Ang^-4
Cl   c Cl   s Spring (c-s)  Spring k 2       29.380000    eV*Ang^-2 0.000  0.800
                            Spring k 4       0.0000000    eV*Ang^-4
Mg   c Mg   s Spring (c-s)  Spring k 2       361.60000    eV*Ang^-2 0.000  0.800
                            Spring k 4       0.0000000    eV*Ang^-4
Ca   c Ca   s Spring (c-s)  Spring k 2       110.20000    eV*Ang^-2 0.000  0.800
                            Spring k 4       0.0000000    eV*Ang^-4
Sr   c Sr   s Spring (c-s)  Spring k 2       71.700000    eV*Ang^-2 0.000  0.800
                            Spring k 4       0.0000000    eV*Ang^-4
Ba   c Ba   s Spring (c-s)  Spring k 2       495.20000    eV*Ang^-2 0.000  0.800
                            Spring k 4       0.0000000    eV*Ang^-4
Na   c Na   c Buckingham    Buckingham A     1788.1900    eV        0.000 12.000
                            Buckingham rho  0.15900000    Ang
                            Buckingham C     0.0000000    eV*Ang^6
Na   c O    s Buckingham    Buckingham A     588.38000    eV        0.000 12.000
                            Buckingham rho  0.33800000    Ang
                            Buckingham C     0.0000000    eV*Ang^6
Na   c Cl   s Buckingham    Buckingham A     1170.4100    eV        0.000 12.000
                            Buckingham rho  0.31500000    Ang
                            Buckingham C     0.0000000    eV*Ang^6
O    s O    s Buckingham    Buckingham A     22764.300    eV        0.000 12.000
                            Buckingham rho  0.14900000    Ang
                            Buckingham C     13.190000    eV*Ang^6
O    s Cl   s Buckingham    Buckingham A     8286.9100    eV        0.000 12.000
                            Buckingham rho  0.25900000    Ang
                            Buckingham C     62.200000    eV*Ang^6
Cl   s Cl   s Buckingham    Buckingham A     1227.2000    eV        0.000 12.000
                            Buckingham rho  0.32100000    Ang
                            Buckingham C     14.530000    eV*Ang^6
O    s Mg   s Buckingham    Buckingham A     1428.5000    eV        0.000 12.000
                            Buckingham rho  0.29450000    Ang
                            Buckingham C     0.0000000    eV*Ang^6
Mg   s Cl   s Buckingham    Buckingham A     4914.5400    eV        0.000 12.000
                            Buckingham rho  0.25700000    Ang
                            Buckingham C     0.0000000    eV*Ang^6
O    s Ca   s Buckingham    Buckingham A     1090.4000    eV        0.000 12.000
                            Buckingham rho  0.34370000    Ang
                            Buckingham C     0.0000000    eV*Ang^6
Cl   s Ca   s Buckingham    Buckingham A     2302.0000    eV        0.000 12.000
                            Buckingham rho  0.34020000    Ang
                            Buckingham C     0.0000000    eV*Ang^6
O    s Sr   s Buckingham    Buckingham A     959.10000    eV        0.000 12.000
                            Buckingham rho  0.37210000    Ang
                            Buckingham C     0.0000000    eV*Ang^6
Cl   s Sr   s Buckingham    Buckingham A     2191.0900    eV        0.000 12.000
                            Buckingham rho  0.34570000    Ang
                            Buckingham C     0.0000000    eV*Ang^6
O    s Ba   s Buckingham    Buckingham A     905.70000    eV        0.000 12.000
                            Buckingham rho  0.39760000    Ang
                            Buckingham C     0.0000000    eV*Ang^6
Cl   s Ba   s Buckingham    Buckingham A     2704.5500    eV        0.000 12.000
                            Buckingham rho  0.35280000    Ang
                            Buckingham C     0.0000000    eV*Ang^6

*  Output for configuration   1                                                *

  Components of energy :

  Interatomic potentials     =           4.94315381 eV
  Monopole - monopole (real) =         -10.03624526 eV
  Monopole - monopole (recip)=         -29.53581274 eV
  Monopole - monopole (total)=         -39.57205800 eV
  Total lattice energy       =         -34.62890419 eV
  Total lattice energy       =           -3341.1599 kJ/(mole unit cells)

  Number of variables =        1

  Maximum number of calculations  =          1000
  Maximum Hessian update interval =            10
  Maximum step size               =   1.000000000
  Maximum parameter tolerance     =   0.000010000
  Maximum function  tolerance     =   0.000010000
  Maximum gradient  tolerance     =   0.001000000
  Maximum gradient  component     =   0.010000000

  Symmetry constrained optimisation

  Symmetry used for second derivatives

  Cell parameters to be optimised using strains

  Newton-Raphson optimiser to be used

  BFGS hessian update to be used

  Lower half triangular hessian to be used

  Start of bulk optimisation :

  ** Hessian calculated **

  **** Optimisation achieved ****

  Final energy =     -34.67767136 eV
  Final Gnorm  =       0.00000010

  Components of energy :

  Interatomic potentials     =           5.77546103 eV
  Monopole - monopole (real) =         -10.25970290 eV
  Monopole - monopole (recip)=         -30.19342950 eV
  Monopole - monopole (total)=         -40.45313239 eV
  Total lattice energy       =         -34.67767136 eV
  Total lattice energy       =           -3345.8652 kJ/(mole unit cells)

  Final asymmetric unit coordinates :

   No.  Atomic        x           y           z         Radius
        Label       (Frac)      (Frac)      (Frac)       (Angs)
     1  Cl    c     0.000000    0.000000    0.000000    0.000000
     2  O     c     0.500000    0.500000    0.500000    0.000000
     3  Na    c     0.500000    0.500000    0.000000    0.000000
     4  Cl    s     0.000000    0.000000    0.000000    0.000000
     5  O     s     0.500000    0.500000    0.500000    0.000000

  Final Cartesian lattice vectors (Angstroms) :

        4.405902    0.000000    0.000000
        0.000000    4.405902    0.000000
        0.000000    0.000000    4.405902

  Final cell parameters and derivatives :

       a            4.405902 Angstrom     dE/de1(xx)     0.000000 eV/strain
       b            4.405902 Angstrom     dE/de2(yy)     0.000000 eV/strain
       c            4.405902 Angstrom     dE/de3(zz)     0.000000 eV/strain
       alpha       90.000000 Degrees      dE/de4(yz)     0.000000 eV/strain
       beta        90.000000 Degrees      dE/de5(xz)     0.000000 eV/strain
       gamma       90.000000 Degrees      dE/de6(xy)     0.000000 eV/strain

  Primitive cell volume =            85.527266 Angs**3

  Density of cell =      2.338030 g/cm**3

  Non-primitive cell volume =            85.527266 Angs**3

  Final internal derivatives :

   No.  Atomic          a             b             c           Radius
        Label          (eV)          (eV)          (eV)        (eV/Angs)
      1 Cl    c       0.000000      0.000000      0.000000      0.000000
      2 O     c       0.000000      0.000000      0.000000      0.000000
      3 Na    c       0.000000      0.000000      0.000000      0.000000
      4 Cl    s       0.000000      0.000000      0.000000      0.000000
      5 O     s       0.000000      0.000000      0.000000      0.000000
  Maximum abs         0.000000      0.000000      0.000000      0.000000

  Comparison of initial and final structures :

[...]
     52 x         -2.202951     -2.218715    -0.015764    Cartesian    0.72
     52 y         -2.202951     -2.197570     0.005381    Cartesian   -0.24
     52 z          8.811805      8.818277     0.006472    Cartesian    0.07
     53 x         -6.608853     -6.619519    -0.010666    Cartesian    0.16
     53 y         -2.202951     -2.204156    -0.001204    Cartesian    0.05
     53 z          4.405902      4.406022     0.000119    Cartesian    0.00
     54 x          6.608853      6.613309     0.004455    Cartesian    0.07
     54 y          6.608853      6.615449     0.006596    Cartesian    0.10
     54 z          6.608853      6.615449     0.006596    Cartesian    0.10
     55 x         -2.202951     -2.206733    -0.003782    Cartesian    0.17
     55 y          6.608853      6.614908     0.006054    Cartesian    0.09
     55 z          6.608853      6.614908     0.006054    Cartesian    0.09
     56 x         13.217707     13.195292    -0.022415    Cartesian   -0.17
     56 y          0.000000      0.000000     0.000000    Cartesian    0.00
     56 z          0.000000      0.000000     0.000000    Cartesian    0.00
     57 x         11.014756     11.020981     0.006225    Cartesian    0.06
     57 y          6.608853      6.620480     0.011627    Cartesian    0.18
     57 z          0.000000      0.000000     0.000000    Cartesian    0.00
     58 x          8.811805      8.808165    -0.003639    Cartesian   -0.04
     58 y          0.000000      0.000000     0.000000    Cartesian    0.00
     58 z          8.811805      8.798556    -0.013249    Cartesian   -0.15
     59 x          2.202951      2.202834    -0.000117    Cartesian   -0.01
     59 y          6.608853      6.633369     0.024515    Cartesian    0.37
     59 z          8.811805      8.824076     0.012271    Cartesian    0.14
     60 x          2.202951      2.201862    -0.001090    Cartesian   -0.05
     60 y         11.014756     11.043110     0.028354    Cartesian    0.26
     60 z          0.000000      0.000000     0.000000    Cartesian    0.00
     61 x         -4.405902     -4.401329     0.004573    Cartesian   -0.10
     61 y          0.000000      0.000000     0.000000    Cartesian    0.00
     61 z          8.811805      8.798253    -0.013552    Cartesian   -0.15
     62 x         -6.608853     -6.613595    -0.004742    Cartesian    0.07
     62 y          6.608853      6.621533     0.012679    Cartesian    0.19
     62 z          0.000000      0.000000     0.000000    Cartesian    0.00
     63 x         -8.811805     -8.788899     0.022906    Cartesian   -0.26
     63 y          0.000000      0.000000     0.000000    Cartesian    0.00
     63 z          0.000000      0.000000     0.000000    Cartesian    0.00
     64 x         11.014756     11.011282    -0.003474    Cartesian   -0.03
     64 y         -2.202951     -2.202222     0.000729    Cartesian   -0.03
     64 z          6.608853      6.604664    -0.004190    Cartesian   -0.06
     65 x          2.202951      2.203396     0.000445    Cartesian    0.02
     65 y         -2.202951     -2.201853     0.001098    Cartesian   -0.05
     65 z         11.014756     11.023815     0.009060    Cartesian    0.08
     66 x         -6.608853     -6.605009     0.003844    Cartesian   -0.06
     66 y          6.608853      6.604142    -0.004711    Cartesian   -0.07
     66 z         -2.202951     -2.202139     0.000812    Cartesian   -0.04
     67 x         13.217707     13.217891     0.000184    Cartesian    0.00
     67 y         -2.202951     -2.203180    -0.000229    Cartesian    0.01
     67 z         -2.202951     -2.203180    -0.000229    Cartesian    0.01
     68 x          8.811805      8.814571     0.002766    Cartesian    0.03
     68 y          6.608853      6.617741     0.008888    Cartesian    0.13
     68 z          6.608853      6.617741     0.008888    Cartesian    0.13
     69 x          4.405902      4.408483     0.002581    Cartesian    0.06
     69 y         -2.202951     -2.208018    -0.005067    Cartesian    0.23
     69 z         11.014756     11.032371     0.017615    Cartesian    0.16
     70 x          0.000000     -0.002184    -0.002184    Cartesian    0.00
     70 y         -2.202951     -2.209069    -0.006118    Cartesian    0.28
     70 z         11.014756     11.029467     0.014711    Cartesian    0.13
     71 x         -4.405902     -4.408324    -0.002422    Cartesian    0.05
     71 y          6.608853      6.617624     0.008770    Cartesian    0.13
     71 z          6.608853      6.617624     0.008770    Cartesian    0.13
     72 x         -8.811805     -8.810689     0.001116    Cartesian   -0.01
     72 y         -2.202951     -2.200284     0.002667    Cartesian   -0.12
     72 z         -2.202951     -2.200284     0.002667    Cartesian   -0.12
     73 x         13.217707     13.194418    -0.023289    Cartesian   -0.18
     73 y          0.000000      0.000000     0.000000    Cartesian    0.00
     73 z          4.405902      4.396703    -0.009199    Cartesian   -0.21
     74 x         11.014756     11.028843     0.014087    Cartesian    0.13
     74 y          6.608853      6.620717     0.011864    Cartesian    0.18
     74 z          4.405902      4.407685     0.001782    Cartesian    0.04
     75 x          8.811805      8.807631    -0.004173    Cartesian   -0.05
     75 y          4.405902      4.397579    -0.008323    Cartesian   -0.19
     75 z          8.811805      8.795346    -0.016459    Cartesian   -0.19
     76 x          6.608853      6.610910     0.002057    Cartesian    0.03
     76 y         11.014756     11.032619     0.017863    Cartesian    0.16
     76 z          0.000000      0.000000     0.000000    Cartesian    0.00
     77 x          6.608853      6.614921     0.006068    Cartesian    0.09
     77 y          6.608853      6.621791     0.012937    Cartesian    0.20
     77 z          8.811805      8.818309     0.006505    Cartesian    0.07
     78 x          2.202951      2.203006     0.000055    Cartesian    0.00
     78 y         11.014756     11.032272     0.017516    Cartesian    0.16
     78 z          4.405902      4.408948     0.003046    Cartesian    0.07
     79 x         -2.202951     -2.203634    -0.000683    Cartesian    0.03
     79 y         11.014756     11.033871     0.019116    Cartesian    0.17
     79 z          0.000000      0.000000     0.000000    Cartesian    0.00
     80 x         -2.202951     -2.208567    -0.005616    Cartesian    0.25
     80 y          8.811805      8.818051     0.006247    Cartesian    0.07
     80 z          6.608853      6.621464     0.012610    Cartesian    0.19
     81 x         -4.405902     -4.401041     0.004861    Cartesian   -0.11
     81 y          4.405902      4.397450    -0.008452    Cartesian   -0.19
     81 z          8.811805      8.794999    -0.016805    Cartesian   -0.19
     82 x         -6.608853     -6.622409    -0.013555    Cartesian    0.21
     82 y          6.608853      6.620777     0.011924    Cartesian    0.18
     82 z          4.405902      4.407526     0.001624    Cartesian    0.04
     83 x         -8.811805     -8.787847     0.023958    Cartesian   -0.27
     83 y          0.000000      0.000000     0.000000    Cartesian    0.00
     83 z          4.405902      4.396239    -0.009663    Cartesian   -0.22
     84 x          2.161920      2.161920     0.000000    Cartesian    0.00
     84 y          0.000000      0.000000     0.000000    Cartesian    0.00
     84 z          0.000000      0.000000     0.000000    Cartesian    0.00
     85 x          2.202951      2.209924     0.006973    Cartesian    0.32
     85 y         -2.202951     -2.328943    -0.125992    Cartesian    5.72
     85 z         -2.202951     -2.328943    -0.125992    Cartesian    5.72
     86 x          4.405902      4.405665    -0.000238    Cartesian   -0.01
     86 y          0.000000      0.000000     0.000000    Cartesian    0.00
     86 z          4.405902      4.388727    -0.017175    Cartesian   -0.39
     87 x          0.000000      0.010086     0.010086    Cartesian    0.00
     87 y          0.000000      0.000000     0.000000    Cartesian    0.00
     87 z          4.405902      4.385680    -0.020222    Cartesian   -0.46
     88 x          6.608853      6.567867    -0.040986    Cartesian   -0.62
     88 y         -2.202951     -2.186663     0.016288    Cartesian   -0.74
     88 z         -2.202951     -2.186663     0.016288    Cartesian   -0.74
     89 x         -2.202951     -2.155876     0.047075    Cartesian   -2.14
     89 y         -2.202951     -2.185311     0.017640    Cartesian   -0.80
     89 z         -2.202951     -2.185311     0.017640    Cartesian   -0.80
     90 x          8.811805      8.734050    -0.077754    Cartesian   -0.88
     90 y          0.000000      0.000000     0.000000    Cartesian    0.00
     90 z          0.000000      0.000000     0.000000    Cartesian    0.00
     91 x          4.405902      4.437370     0.031468    Cartesian    0.71
     91 y          4.405902      4.425596     0.019694    Cartesian    0.45
     91 z          4.405902      4.425596     0.019694    Cartesian    0.45
     92 x          0.000000     -0.026905    -0.026905    Cartesian    0.00
     92 y          4.405902      4.423394     0.017492    Cartesian    0.40
     92 z          4.405902      4.423394     0.017492    Cartesian    0.40
     93 x         -4.405902     -4.326678     0.079225    Cartesian   -1.80
     93 y          0.000000      0.000000     0.000000    Cartesian    0.00
     93 z          0.000000      0.000000     0.000000    Cartesian    0.00
     94 x          2.202951      2.203721     0.000770    Cartesian    0.03
     94 y         -2.202951     -2.213832    -0.010881    Cartesian    0.49
     94 z          6.608853      6.648124     0.039270    Cartesian    0.59
     95 x          8.811805      8.768047    -0.043757    Cartesian   -0.50
     95 y          0.000000      0.000000     0.000000    Cartesian    0.00
     95 z          4.405902      4.366328    -0.039574    Cartesian   -0.90
     96 x         -4.405902     -4.360130     0.045772    Cartesian   -1.04
     96 y          0.000000      0.000000     0.000000    Cartesian    0.00
     96 z          4.405902      4.366504    -0.039398    Cartesian   -0.89
     97 x          6.608853      6.607528    -0.001325    Cartesian   -0.02
     97 y         -2.202951     -2.203323    -0.000372    Cartesian    0.02
     97 z          6.608853      6.612867     0.004013    Cartesian    0.06
     98 x         -2.202951     -2.199171     0.003781    Cartesian   -0.17
     98 y         -2.202951     -2.202893     0.000058    Cartesian   -0.00
     98 z          6.608853      6.612227     0.003374    Cartesian    0.05
     99 x          8.811805      8.782428    -0.029376    Cartesian   -0.33
     99 y          4.405902      4.374349    -0.031553    Cartesian   -0.72
     99 z          4.405902      4.374349    -0.031553    Cartesian   -0.72
    100 x          4.405902      4.406735     0.000833    Cartesian    0.02
    100 y          0.000000      0.000000     0.000000    Cartesian    0.00
    100 z          8.811805      8.803084    -0.008721    Cartesian   -0.10
    101 x          0.000000      0.000410     0.000410    Cartesian    0.00
    101 y          0.000000      0.000000     0.000000    Cartesian    0.00
    101 z          8.811805      8.802999    -0.008805    Cartesian   -0.10
    102 x         -4.405902     -4.374288     0.031615    Cartesian   -0.72
    102 y          4.405902      4.374521    -0.031382    Cartesian   -0.71
    102 z          4.405902      4.374521    -0.031382    Cartesian   -0.71
    103 x         11.014756     11.005323    -0.009432    Cartesian   -0.09
    103 y         -2.202951     -2.202088     0.000863    Cartesian   -0.04
    103 z         -2.202951     -2.202088     0.000863    Cartesian   -0.04
    104 x          2.202951      2.203303     0.000351    Cartesian    0.02
    104 y          6.608853      6.622505     0.013651    Cartesian    0.21
    104 z          6.608853      6.622505     0.013651    Cartesian    0.21
    105 x         -6.608853     -6.596748     0.012105    Cartesian   -0.18
    105 y         -2.202951     -2.202348     0.000603    Cartesian   -0.03
    105 z         -2.202951     -2.202348     0.000603    Cartesian   -0.03
    106 x          4.405902      4.404788    -0.001114    Cartesian   -0.03
    106 y          4.405902      4.405310    -0.000593    Cartesian   -0.01
    106 z          8.811805      8.805814    -0.005991    Cartesian   -0.07
    107 x          0.000000      0.001839     0.001839    Cartesian    0.00
    107 y          4.405902      4.405271    -0.000631    Cartesian   -0.01
    107 z          8.811805      8.805642    -0.006162    Cartesian   -0.07
    108 x          6.608853      6.613309     0.004455    Cartesian    0.07
    108 y          6.608853      6.615453     0.006599    Cartesian    0.10
    108 z          6.608853      6.615453     0.006599    Cartesian    0.10
    109 x         -2.202951     -2.206733    -0.003782    Cartesian    0.17
    109 y          6.608853      6.614911     0.006057    Cartesian    0.09
    109 z          6.608853      6.614911     0.006057    Cartesian    0.09
    110 x         13.217707     13.192886    -0.024821    Cartesian   -0.19
    110 y          0.000000      0.000000     0.000000    Cartesian    0.00
    110 z          0.000000      0.000000     0.000000    Cartesian    0.00
    111 x          8.811805      8.807345    -0.004460    Cartesian   -0.05
    111 y          0.000000      0.000000     0.000000    Cartesian    0.00
    111 z          8.811805      8.796865    -0.014940    Cartesian   -0.17
    112 x         -4.405902     -4.400329     0.005573    Cartesian   -0.13
    112 y          0.000000      0.000000     0.000000    Cartesian    0.00
    112 z          8.811805      8.796690    -0.015114    Cartesian   -0.17
    113 x         -8.811805     -8.786913     0.024891    Cartesian   -0.28
    113 y          0.000000      0.000000     0.000000    Cartesian    0.00
    113 z          0.000000      0.000000     0.000000    Cartesian    0.00
    114 x         11.014756     11.011282    -0.003474    Cartesian   -0.03
    114 y         -2.202951     -2.202222     0.000729    Cartesian   -0.03
    114 z          6.608853      6.604662    -0.004191    Cartesian   -0.06
    115 x          2.202951      2.203397     0.000446    Cartesian    0.02
    115 y         -2.202951     -2.201848     0.001103    Cartesian   -0.05
    115 z         11.014756     11.023812     0.009056    Cartesian    0.08
    116 x         -6.608853     -6.605011     0.003843    Cartesian   -0.06
    116 y          6.608853      6.604139    -0.004714    Cartesian   -0.07
    116 z         -2.202951     -2.202139     0.000812    Cartesian   -0.04
    117 x         13.217707     13.191770    -0.025937    Cartesian   -0.20
    117 y          0.000000      0.000000     0.000000    Cartesian    0.00
    117 z          4.405902      4.395521    -0.010381    Cartesian   -0.24
    118 x          8.811805      8.806935    -0.004870    Cartesian   -0.06
    118 y          4.405902      4.396085    -0.009817    Cartesian   -0.22
    118 z          8.811805      8.793061    -0.018743    Cartesian   -0.21
    119 x         -4.405902     -4.400235     0.005667    Cartesian   -0.13
    119 y          4.405902      4.396014    -0.009888    Cartesian   -0.22
    119 z          8.811805      8.792792    -0.019012    Cartesian   -0.22
    120 x         -8.811805     -8.785191     0.026614    Cartesian   -0.30
    120 y          0.000000      0.000000     0.000000    Cartesian    0.00
    120 z          4.405902      4.395125    -0.010778    Cartesian   -0.24

  Time to end of optimisation  =       11.2164 seconds

  Timing analysis for GULP :

  Task / Subroutine                                          Time (Seconds)
  Calculation of reciprocal space energy and derivatives          0.0032
  Calculation of reciprocal space energy using symmetry           0.0054
  Calculation of real space energy and derivatives                0.0179
  Calculation of real space energy using symmetry                 0.0564
  Calculation for region 1 energy and derivatives (2-b)           6.7193
  Calculation for region 2a energy                                3.6280
  Calculation for region 2b energy                                0.0045
  Calculation and manipulation of Hessian matrix                  0.5372
  Calculation of matrix inversion                                 0.0404
  Symmetry generation of equivalent positions                     0.0219
  Global summation overhead                                       0.0001

  Dump file written as Na3OCl.grs

  Job Finished at 16:17.00  8th January    2021