  Job Started  at 16:17.12  8th January    2021

  Number of CPUs =     1

  Total number of configurations input =      1

*  Input for Configuration =   1                                               *

  Formula = ClONa3

  Number of irreducible atoms/shells =       5

  Total number atoms/shells =       7

  Dimensionality = 3               :  Bulk

  Symmetry :

  Crystal family                   :  Cubic
  Crystal class  (Groth - 1921)    :  Cubic Hexakisoctahedral

  Space group (centrosymmetric)    :  P M 3 M

  Patterson group                  :  P m -3 m

  Cartesian lattice vectors (Angstroms) :

        4.504000    0.000000    0.000000
        0.000000    4.504000    0.000000
        0.000000    0.000000    4.504000

  Cell parameters (Angstroms/Degrees):

  a =       4.5040    alpha =  90.0000
  b =       4.5040    beta  =  90.0000
  c =       4.5040    gamma =  90.0000

  Initial cell volume =          91.368216 Angs**3

  Temperature of configuration =   0.00     K

  Pressure of configuration =         0.000 GPa

  Fractional coordinates of asymmetric unit :

   No.  Atomic       x           y          z         Charge      Occupancy
        Label      (Frac)      (Frac)     (Frac)        (e)         (Frac)
      1 Cl    c    0.000000    0.000000    0.000000     1.48500    1.000000
      2 O     c    0.500000    0.500000    0.500000     0.18300    1.000000
      3 Na    c    0.500000    0.500000    0.000000     1.00000    1.000000
      4 Cl    s    0.000000    0.000000    0.000000    -2.48500    1.000000
      5 O     s    0.500000    0.500000    0.500000    -2.18300    1.000000

  Constraints :

  Constraint no.      Unconstrained     Constrained    Coefficient    Offset
                         Variable         Variable
           1              Strain 1        Strain 2       1.00000      0.0000
           2              Strain 1        Strain 3       1.00000      0.0000

*  General input information                                                   *

  Species output for all configurations :

  Species    Type    Atomic    Atomic    Charge       Radii (Angs)     Library
                     Number     Mass       (e)     Cova   Ionic  VDW   Symbol
    Na       Core       11      22.99   1.000000   0.970  0.000  2.300
    O        Core        8      16.00   0.183000   0.730  0.000  1.360
    O        Shell       8       0.00  -2.183000   0.730  0.000  1.360
    Cl       Core       17      35.45   1.485000   0.990  0.000  1.650
    Cl       Shell      17       0.00  -2.485000   0.990  0.000  1.650
    Mg       Core       12      24.31   0.415000   1.100  0.000  0.000
    Mg       Shell      12       0.00   1.585000   1.100  0.000  0.000
    Ca       Core       20      40.08  -1.135000   0.990  0.000  0.000
    Ca       Shell      20       0.00   3.135000   0.990  0.000  0.000
    Sr       Core       38      87.62  -1.251000   1.120  0.000  0.000
    Sr       Shell      38       0.00   3.251000   1.120  0.000  0.000
    Ba       Core       56     137.33  -7.203000   1.340  0.000  0.000
    Ba       Shell      56       0.00   9.203000   1.340  0.000  0.000

  Lattice summation method               =    Ewald          (3-D)
                                         =    Parry          (2-D)
                                         =    Saunders et al (1-D)
  Accuracy factor for lattice sums       =   12.000

  Analytic derivatives to be used

  Time limit = Infinity

  Maximum range for interatomic potentials =    100000.000000 Angstroms

  General interatomic potentials :

Atom  Types   Potential      Parameter       Value         Units   Cutoffs(Ang)
  1     2                                                            Min /  Max
O    c O    s Spring (c-s)  Spring k 2       593.71600    eV*Ang^-2 0.000  0.800
                            Spring k 4       0.0000000    eV*Ang^-4
Cl   c Cl   s Spring (c-s)  Spring k 2       29.380000    eV*Ang^-2 0.000  0.800
                            Spring k 4       0.0000000    eV*Ang^-4
Mg   c Mg   s Spring (c-s)  Spring k 2       361.60000    eV*Ang^-2 0.000  0.800
                            Spring k 4       0.0000000    eV*Ang^-4
Ca   c Ca   s Spring (c-s)  Spring k 2       110.20000    eV*Ang^-2 0.000  0.800
                            Spring k 4       0.0000000    eV*Ang^-4
Sr   c Sr   s Spring (c-s)  Spring k 2       71.700000    eV*Ang^-2 0.000  0.800
                            Spring k 4       0.0000000    eV*Ang^-4
Ba   c Ba   s Spring (c-s)  Spring k 2       495.20000    eV*Ang^-2 0.000  0.800
                            Spring k 4       0.0000000    eV*Ang^-4
Na   c Na   c Buckingham    Buckingham A     1788.1900    eV        0.000 12.000
                            Buckingham rho  0.15900000    Ang
                            Buckingham C     0.0000000    eV*Ang^6
Na   c O    s Buckingham    Buckingham A     588.38000    eV        0.000 12.000
                            Buckingham rho  0.33800000    Ang
                            Buckingham C     0.0000000    eV*Ang^6
Na   c Cl   s Buckingham    Buckingham A     1170.4100    eV        0.000 12.000
                            Buckingham rho  0.31500000    Ang
                            Buckingham C     0.0000000    eV*Ang^6
O    s O    s Buckingham    Buckingham A     22764.300    eV        0.000 12.000
                            Buckingham rho  0.14900000    Ang
                            Buckingham C     13.190000    eV*Ang^6
O    s Cl   s Buckingham    Buckingham A     8286.9100    eV        0.000 12.000
                            Buckingham rho  0.25900000    Ang
                            Buckingham C     62.200000    eV*Ang^6
Cl   s Cl   s Buckingham    Buckingham A     1227.2000    eV        0.000 12.000
                            Buckingham rho  0.32100000    Ang
                            Buckingham C     14.530000    eV*Ang^6
O    s Mg   s Buckingham    Buckingham A     1428.5000    eV        0.000 12.000
                            Buckingham rho  0.29450000    Ang
                            Buckingham C     0.0000000    eV*Ang^6
Mg   s Cl   s Buckingham    Buckingham A     4914.5400    eV        0.000 12.000
                            Buckingham rho  0.25700000    Ang
                            Buckingham C     0.0000000    eV*Ang^6
O    s Ca   s Buckingham    Buckingham A     1090.4000    eV        0.000 12.000
                            Buckingham rho  0.34370000    Ang
                            Buckingham C     0.0000000    eV*Ang^6
Cl   s Ca   s Buckingham    Buckingham A     2302.0000    eV        0.000 12.000
                            Buckingham rho  0.34020000    Ang
                            Buckingham C     0.0000000    eV*Ang^6
O    s Sr   s Buckingham    Buckingham A     959.10000    eV        0.000 12.000
                            Buckingham rho  0.37210000    Ang
                            Buckingham C     0.0000000    eV*Ang^6
Cl   s Sr   s Buckingham    Buckingham A     2191.0900    eV        0.000 12.000
                            Buckingham rho  0.34570000    Ang
                            Buckingham C     0.0000000    eV*Ang^6
O    s Ba   s Buckingham    Buckingham A     905.70000    eV        0.000 12.000
                            Buckingham rho  0.39760000    Ang
                            Buckingham C     0.0000000    eV*Ang^6
Cl   s Ba   s Buckingham    Buckingham A     2704.5500    eV        0.000 12.000
                            Buckingham rho  0.35280000    Ang
                            Buckingham C     0.0000000    eV*Ang^6

*  Output for configuration   1                                                *

  Components of energy :

  Interatomic potentials     =           4.94315381 eV
  Monopole - monopole (real) =         -10.03624526 eV
  Monopole - monopole (recip)=         -29.53581274 eV
  Monopole - monopole (total)=         -39.57205800 eV
  Total lattice energy       =         -34.62890419 eV
  Total lattice energy       =           -3341.1599 kJ/(mole unit cells)

  Number of variables =        1

  Maximum number of calculations  =          1000
  Maximum Hessian update interval =            10
  Maximum step size               =   1.000000000
  Maximum parameter tolerance     =   0.000010000
  Maximum function  tolerance     =   0.000010000
  Maximum gradient  tolerance     =   0.001000000
  Maximum gradient  component     =   0.010000000

  Symmetry constrained optimisation

  Symmetry used for second derivatives

  Cell parameters to be optimised using strains

  Newton-Raphson optimiser to be used

  BFGS hessian update to be used

  Lower half triangular hessian to be used

  Start of bulk optimisation :

  ** Hessian calculated **

  **** Optimisation achieved ****

  Final energy =     -34.67767136 eV
  Final Gnorm  =       0.00000010

  Components of energy :

  Interatomic potentials     =           5.77546103 eV
  Monopole - monopole (real) =         -10.25970290 eV
  Monopole - monopole (recip)=         -30.19342950 eV
  Monopole - monopole (total)=         -40.45313239 eV
  Total lattice energy       =         -34.67767136 eV
  Total lattice energy       =           -3345.8652 kJ/(mole unit cells)

  Final asymmetric unit coordinates :

   No.  Atomic        x           y           z         Radius
        Label       (Frac)      (Frac)      (Frac)       (Angs)
     1  Cl    c     0.000000    0.000000    0.000000    0.000000
     2  O     c     0.500000    0.500000    0.500000    0.000000
     3  Na    c     0.500000    0.500000    0.000000    0.000000
     4  Cl    s     0.000000    0.000000    0.000000    0.000000
     5  O     s     0.500000    0.500000    0.500000    0.000000

  Final Cartesian lattice vectors (Angstroms) :

        4.405902    0.000000    0.000000
        0.000000    4.405902    0.000000
        0.000000    0.000000    4.405902

  Final cell parameters and derivatives :

       a            4.405902 Angstrom     dE/de1(xx)     0.000000 eV/strain
       b            4.405902 Angstrom     dE/de2(yy)     0.000000 eV/strain
       c            4.405902 Angstrom     dE/de3(zz)     0.000000 eV/strain
       alpha       90.000000 Degrees      dE/de4(yz)     0.000000 eV/strain
       beta        90.000000 Degrees      dE/de5(xz)     0.000000 eV/strain
       gamma       90.000000 Degrees      dE/de6(xy)     0.000000 eV/strain

  Primitive cell volume =            85.527266 Angs**3

  Density of cell =      2.338030 g/cm**3

  Non-primitive cell volume =            85.527266 Angs**3

  Final internal derivatives :

   No.  Atomic          a             b             c           Radius
        Label          (eV)          (eV)          (eV)        (eV/Angs)
      1 Cl    c       0.000000      0.000000      0.000000      0.000000
      2 O     c       0.000000      0.000000      0.000000      0.000000
      3 Na    c       0.000000      0.000000      0.000000      0.000000
      4 Cl    s       0.000000      0.000000      0.000000      0.000000
      5 O     s       0.000000      0.000000      0.000000      0.000000
  Maximum abs         0.000000      0.000000      0.000000      0.000000

  Comparison of initial and final structures :

[...]
     51 z          8.811805      8.799362    -0.012443    Cartesian   -0.14
     52 x         -2.202951     -2.214295    -0.011344    Cartesian    0.51
     52 y         -2.202951     -2.197036     0.005915    Cartesian   -0.27
     52 z          8.811805      8.814724     0.002920    Cartesian    0.03
     53 x         -6.608853     -6.618894    -0.010040    Cartesian    0.15
     53 y         -2.202951     -2.201954     0.000997    Cartesian   -0.05
     53 z          4.405902      4.405957     0.000054    Cartesian    0.00
     54 x          6.608853      6.609346     0.000493    Cartesian    0.01
     54 y          6.608853      6.612091     0.003237    Cartesian    0.05
     54 z          6.608853      6.612091     0.003237    Cartesian    0.05
     55 x         -2.202951     -2.200144     0.002808    Cartesian   -0.13
     55 y          6.608853      6.609093     0.000239    Cartesian    0.00
     55 z          6.608853      6.609093     0.000239    Cartesian    0.00
     56 x         13.217707     13.198099    -0.019607    Cartesian   -0.15
     56 y          0.000000      0.000000     0.000000    Cartesian    0.00
     56 z          0.000000      0.000000     0.000000    Cartesian    0.00
     57 x         11.014756     11.024184     0.009428    Cartesian    0.09
     57 y          6.608853      6.619741     0.010887    Cartesian    0.16
     57 z          0.000000      0.000000     0.000000    Cartesian    0.00
     58 x          8.811805      8.809644    -0.002161    Cartesian   -0.02
     58 y          0.000000      0.000000     0.000000    Cartesian    0.00
     58 z          8.811805      8.795819    -0.015985    Cartesian   -0.18
     59 x          2.202951      2.200059    -0.002892    Cartesian   -0.13
     59 y          6.608853      6.616953     0.008100    Cartesian    0.12
     59 z          8.811805      8.817660     0.005855    Cartesian    0.07
     60 x          2.202951      2.198543    -0.004408    Cartesian   -0.20
     60 y         11.014756     11.023138     0.008382    Cartesian    0.08
     60 z          0.000000      0.000000     0.000000    Cartesian    0.00
     61 x         -4.405902     -4.394211     0.011691    Cartesian   -0.27
     61 y          0.000000      0.000000     0.000000    Cartesian    0.00
     61 z          8.811805      8.800737    -0.011068    Cartesian   -0.13
     62 x         -6.608853     -6.612315    -0.003461    Cartesian    0.05
     62 y          6.608853      6.615292     0.006438    Cartesian    0.10
     62 z          0.000000      0.000000     0.000000    Cartesian    0.00
     63 x         -8.811805     -8.793446     0.018359    Cartesian   -0.21
     63 y          0.000000      0.000000     0.000000    Cartesian    0.00
     63 z          0.000000      0.000000     0.000000    Cartesian    0.00
     64 x         11.014756     11.012013    -0.002743    Cartesian   -0.02
     64 y         -2.202951     -2.202395     0.000556    Cartesian   -0.03
     64 z          6.608853      6.606144    -0.002710    Cartesian   -0.04
     65 x          2.202951      2.204755     0.001804    Cartesian    0.08
     65 y         -2.202951     -2.203113    -0.000162    Cartesian    0.01
     65 z         11.014756     11.014897     0.000141    Cartesian    0.00
     66 x         -6.608853     -6.605046     0.003808    Cartesian   -0.06
     66 y          6.608853      6.605690    -0.003164    Cartesian   -0.05
     66 z         -2.202951     -2.202868     0.000083    Cartesian   -0.00
     67 x         13.217707     13.223172     0.005465    Cartesian    0.04
     67 y         -2.202951     -2.210704    -0.007753    Cartesian    0.35
     67 z         -2.202951     -2.210704    -0.007753    Cartesian    0.35
     68 x          8.811805      8.813662     0.001858    Cartesian    0.02
     68 y          6.608853      6.617436     0.008582    Cartesian    0.13
     68 z          6.608853      6.617436     0.008582    Cartesian    0.13
     69 x          4.405902      4.406577     0.000675    Cartesian    0.02
     69 y         -2.202951     -2.206229    -0.003278    Cartesian    0.15
     69 z         11.014756     11.032823     0.018068    Cartesian    0.16
     70 x          0.000000     -0.001098    -0.001098    Cartesian    0.00
     70 y         -2.202951     -2.205530    -0.002579    Cartesian    0.12
     70 z         11.014756     11.023019     0.008263    Cartesian    0.08
     71 x         -4.405902     -4.408037    -0.002134    Cartesian    0.05
     71 y          6.608853      6.610774     0.001920    Cartesian    0.03
     71 z          6.608853      6.610774     0.001920    Cartesian    0.03
     72 x         -8.811805     -8.812556    -0.000751    Cartesian    0.01
     72 y         -2.202951     -2.201764     0.001188    Cartesian   -0.05
     72 z         -2.202951     -2.201764     0.001188    Cartesian   -0.05
     73 x         13.217707     13.196921    -0.020786    Cartesian   -0.16
     73 y          0.000000      0.000000     0.000000    Cartesian    0.00
     73 z          4.405902      4.398675    -0.007227    Cartesian   -0.16
     74 x         11.014756     11.029138     0.014382    Cartesian    0.13
     74 y          6.608853      6.621639     0.012785    Cartesian    0.19
     74 z          4.405902      4.408125     0.002222    Cartesian    0.05
     75 x          8.811805      8.807412    -0.004393    Cartesian   -0.05
     75 y          4.405902      4.398812    -0.007090    Cartesian   -0.16
     75 z          8.811805      8.792270    -0.019535    Cartesian   -0.22
     76 x          6.608853      6.613508     0.004655    Cartesian    0.07
     76 y         11.014756     11.033540     0.018784    Cartesian    0.17
     76 z          0.000000      0.000000     0.000000    Cartesian    0.00
     77 x          6.608853      6.612585     0.003732    Cartesian    0.06
     77 y          6.608853      6.621380     0.012527    Cartesian    0.19
     77 z          8.811805      8.817962     0.006157    Cartesian    0.07
     78 x          2.202951      2.200053    -0.002898    Cartesian   -0.13
     78 y         11.014756     11.031737     0.016981    Cartesian    0.15
     78 z          4.405902      4.408390     0.002488    Cartesian    0.06
     79 x         -2.202951     -2.209383    -0.006432    Cartesian    0.29
     79 y         11.014756     11.034202     0.019447    Cartesian    0.18
     79 z          0.000000      0.000000     0.000000    Cartesian    0.00
     80 x         -2.202951     -2.210906    -0.007955    Cartesian    0.36
     80 y          8.811805      8.815845     0.004041    Cartesian    0.05
     80 z          6.608853      6.618858     0.010004    Cartesian    0.15
     81 x         -4.405902     -4.393912     0.011990    Cartesian   -0.27
     81 y          4.405902      4.399528    -0.006374    Cartesian   -0.14
     81 z          8.811805      8.795706    -0.016099    Cartesian   -0.18
     82 x         -6.608853     -6.621888    -0.013035    Cartesian    0.20
     82 y          6.608853      6.617021     0.008168    Cartesian    0.12
     82 z          4.405902      4.407181     0.001279    Cartesian    0.03
     83 x         -8.811805     -8.790500     0.021305    Cartesian   -0.24
     83 y          0.000000      0.000000     0.000000    Cartesian    0.00
     83 z          4.405902      4.399084    -0.006819    Cartesian   -0.15
     84 x          0.360320      0.360320     0.000000    Cartesian    0.00
     84 y          0.000000      0.000000     0.000000    Cartesian    0.00
     84 z          0.000000      0.000000     0.000000    Cartesian    0.00
     85 x          2.202951      2.246060     0.043109    Cartesian    1.96
     85 y         -2.202951     -2.196273     0.006678    Cartesian   -0.30
     85 z         -2.202951     -2.196273     0.006678    Cartesian   -0.30
     86 x          4.405902      4.421959     0.016057    Cartesian    0.36
     86 y          0.000000      0.000000     0.000000    Cartesian    0.00
     86 z          4.405902      4.349350    -0.056552    Cartesian   -1.28
     87 x          0.000000      0.046380     0.046380    Cartesian    0.00
     87 y          0.000000      0.000000     0.000000    Cartesian    0.00
     87 z          4.405902      4.364370    -0.041532    Cartesian   -0.94
     88 x          6.608853      6.594450    -0.014403    Cartesian   -0.22
     88 y         -2.202951     -2.184174     0.018777    Cartesian   -0.85
     88 z         -2.202951     -2.184174     0.018777    Cartesian   -0.85
     89 x         -2.202951     -2.183562     0.019389    Cartesian   -0.88
     89 y         -2.202951     -2.194822     0.008129    Cartesian   -0.37
     89 z         -2.202951     -2.194822     0.008129    Cartesian   -0.37
     90 x          8.811805      8.752623    -0.059181    Cartesian   -0.67
     90 y          0.000000      0.000000     0.000000    Cartesian    0.00
     90 z          0.000000      0.000000     0.000000    Cartesian    0.00
     91 x          4.405902      4.419556     0.013653    Cartesian    0.31
     91 y          4.405902      4.381172    -0.024731    Cartesian   -0.56
     91 z          4.405902      4.381172    -0.024731    Cartesian   -0.56
     92 x          0.000000      0.033427     0.033427    Cartesian    0.00
     92 y          4.405902      4.376671    -0.029231    Cartesian   -0.66
     92 z          4.405902      4.376671    -0.029231    Cartesian   -0.66
     93 x         -4.405902     -4.356481     0.049422    Cartesian   -1.12
     93 y          0.000000      0.000000     0.000000    Cartesian    0.00
     93 z          0.000000      0.000000     0.000000    Cartesian    0.00
     94 x          2.202951      2.206897     0.003946    Cartesian    0.18
     94 y         -2.202951     -2.203451    -0.000500    Cartesian    0.02
     94 z          6.608853      6.610804     0.001950    Cartesian    0.03
     95 x          8.811805      8.778141    -0.033664    Cartesian   -0.38
     95 y          0.000000      0.000000     0.000000    Cartesian    0.00
     95 z          4.405902      4.366036    -0.039867    Cartesian   -0.90
     96 x         -4.405902     -4.374012     0.031890    Cartesian   -0.72
     96 y          0.000000      0.000000     0.000000    Cartesian    0.00
     96 z          4.405902      4.389004    -0.016898    Cartesian   -0.38
     97 x          6.608853      6.610030     0.001177    Cartesian    0.02
     97 y         -2.202951     -2.203054    -0.000103    Cartesian    0.00
     97 z          6.608853      6.608447    -0.000406    Cartesian   -0.01
     98 x         -2.202951     -2.195759     0.007192    Cartesian   -0.33
     98 y         -2.202951     -2.201549     0.001403    Cartesian   -0.06
     98 z          6.608853      6.606292    -0.002561    Cartesian   -0.04
     99 x          8.811805      8.784924    -0.026881    Cartesian   -0.31
     99 y          4.405902      4.372509    -0.033393    Cartesian   -0.76
     99 z          4.405902      4.372509    -0.033393    Cartesian   -0.76
    100 x          4.405902      4.410789     0.004887    Cartesian    0.11
    100 y          0.000000      0.000000     0.000000    Cartesian    0.00
    100 z          8.811805      8.791330    -0.020475    Cartesian   -0.23
    101 x          0.000000      0.010856     0.010856    Cartesian    0.00
    101 y          0.000000      0.000000     0.000000    Cartesian    0.00
    101 z          8.811805      8.795728    -0.016077    Cartesian   -0.18
    102 x         -4.405902     -4.379321     0.026582    Cartesian   -0.60
    102 y          4.405902      4.392778    -0.013124    Cartesian   -0.30
    102 z          4.405902      4.392778    -0.013124    Cartesian   -0.30
    103 x         11.014756     11.016425     0.001669    Cartesian    0.02
    103 y         -2.202951     -2.202532     0.000419    Cartesian   -0.02
    103 z         -2.202951     -2.202532     0.000419    Cartesian   -0.02
    104 x          2.202951      2.204713     0.001762    Cartesian    0.08
    104 y          6.608853      6.610882     0.002029    Cartesian    0.03
    104 z          6.608853      6.610882     0.002029    Cartesian    0.03
    105 x         -6.608853     -6.602297     0.006556    Cartesian   -0.10
    105 y         -2.202951     -2.203161    -0.000210    Cartesian    0.01
    105 z         -2.202951     -2.203161    -0.000210    Cartesian    0.01
    106 x          4.405902      4.409631     0.003729    Cartesian    0.08
    106 y          4.405902      4.401478    -0.004425    Cartesian   -0.10
    106 z          8.811805      8.795791    -0.016014    Cartesian   -0.18
    107 x          0.000000      0.009660     0.009660    Cartesian    0.00
    107 y          4.405902      4.400879    -0.005023    Cartesian   -0.11
    107 z          8.811805      8.796715    -0.015090    Cartesian   -0.17
    108 x          6.608853      6.609345     0.000492    Cartesian    0.01
    108 y          6.608853      6.612093     0.003240    Cartesian    0.05
    108 z          6.608853      6.612093     0.003240    Cartesian    0.05
    109 x         -2.202951     -2.200141     0.002810    Cartesian   -0.13
    109 y          6.608853      6.609093     0.000240    Cartesian    0.00
    109 z          6.608853      6.609093     0.000240    Cartesian    0.00
    110 x         13.217707     13.194534    -0.023173    Cartesian   -0.18
    110 y          0.000000      0.000000     0.000000    Cartesian    0.00
    110 z          0.000000      0.000000     0.000000    Cartesian    0.00
    111 x          8.811805      8.809562    -0.002242    Cartesian   -0.03
    111 y          0.000000      0.000000     0.000000    Cartesian    0.00
    111 z          8.811805      8.793316    -0.018488    Cartesian   -0.21
    112 x         -4.405902     -4.392273     0.013629    Cartesian   -0.31
    112 y          0.000000      0.000000     0.000000    Cartesian    0.00
    112 z          8.811805      8.799453    -0.012352    Cartesian   -0.14
    113 x         -8.811805     -8.791645     0.020160    Cartesian   -0.23
    113 y          0.000000      0.000000     0.000000    Cartesian    0.00
    113 z          0.000000      0.000000     0.000000    Cartesian    0.00
    114 x         11.014756     11.012012    -0.002743    Cartesian   -0.02
    114 y         -2.202951     -2.202394     0.000557    Cartesian   -0.03
    114 z          6.608853      6.606145    -0.002708    Cartesian   -0.04
    115 x          2.202951      2.204758     0.001807    Cartesian    0.08
    115 y         -2.202951     -2.203113    -0.000161    Cartesian    0.01
    115 z         11.014756     11.014898     0.000142    Cartesian    0.00
    116 x         -6.608853     -6.605046     0.003808    Cartesian   -0.06
    116 y          6.608853      6.605686    -0.003167    Cartesian   -0.05
    116 z         -2.202951     -2.202868     0.000084    Cartesian   -0.00
    117 x         13.217707     13.194212    -0.023495    Cartesian   -0.18
    117 y          0.000000      0.000000     0.000000    Cartesian    0.00
    117 z          4.405902      4.397325    -0.008577    Cartesian   -0.19
    118 x          8.811805      8.806877    -0.004928    Cartesian   -0.06
    118 y          4.405902      4.397478    -0.008425    Cartesian   -0.19
    118 z          8.811805      8.789257    -0.022548    Cartesian   -0.26
    119 x         -4.405902     -4.392173     0.013729    Cartesian   -0.31
    119 y          4.405902      4.398680    -0.007223    Cartesian   -0.16
    119 z          8.811805      8.793646    -0.018159    Cartesian   -0.21
    120 x         -8.811805     -8.787897     0.023907    Cartesian   -0.27
    120 y          0.000000      0.000000     0.000000    Cartesian    0.00
    120 z          4.405902      4.398272    -0.007631    Cartesian   -0.17

  Time to end of optimisation  =        7.4128 seconds

  Timing analysis for GULP :

  Task / Subroutine                                          Time (Seconds)
  Calculation of reciprocal space energy and derivatives          0.0007
  Calculation of reciprocal space energy using symmetry           0.0011
  Calculation of real space energy and derivatives                0.0037
  Calculation of real space energy using symmetry                 0.0117
  Calculation for region 1 energy and derivatives (2-b)           4.5567
  Calculation for region 2a energy                                2.4186
  Calculation for region 2b energy                                0.0027
  Calculation and manipulation of Hessian matrix                  0.3100
  Calculation of matrix inversion                                 0.0229
  Symmetry generation of equivalent positions                     0.0046

  Dump file written as Na3OCl.grs

  Job Finished at 16:17.19  8th January    2021