  Job Started  at 13:22.19 26th September  2021

  Number of CPUs =     1

  Total number of configurations input =      1

*  Input for Configuration =   1                                               *

  Formula = ClONa3

  Number of irreducible atoms/shells =       5

  Total number atoms/shells =       7

  Dimensionality = 3               :  Bulk

  Symmetry :

  Crystal family                   :  Cubic
  Crystal class  (Groth - 1921)    :  Cubic Hexakisoctahedral

  Space group (centrosymmetric)    :  P M 3 M

  Patterson group                  :  P m -3 m

  Cartesian lattice vectors (Angstroms) :

        4.504000    0.000000    0.000000
        0.000000    4.504000    0.000000
        0.000000    0.000000    4.504000

  Cell parameters (Angstroms/Degrees):

  a =       4.5040    alpha =  90.0000
  b =       4.5040    beta  =  90.0000
  c =       4.5040    gamma =  90.0000

  Initial cell volume =          91.368216 Angs**3

  Temperature of configuration =   0.00     K

  Pressure of configuration =         0.000 GPa

  Fractional coordinates of asymmetric unit :

   No.  Atomic       x           y          z         Charge      Occupancy
        Label      (Frac)      (Frac)     (Frac)        (e)         (Frac)
      1 Cl    c    0.000000    0.000000    0.000000     1.48500    1.000000
      2 O     c    0.500000    0.500000    0.500000     0.18300    1.000000
      3 Na    c    0.500000    0.500000    0.000000     1.00000    1.000000
      4 Cl    s    0.000000    0.000000    0.000000    -2.48500    1.000000
      5 O     s    0.500000    0.500000    0.500000    -2.18300    1.000000

  Constraints :

  Constraint no.      Unconstrained     Constrained    Coefficient    Offset
                         Variable         Variable
           1              Strain 1        Strain 2       1.00000      0.0000
           2              Strain 1        Strain 3       1.00000      0.0000

*  General input information                                                   *

  Species output for all configurations :

  Species    Type    Atomic    Atomic    Charge       Radii (Angs)     Library
                     Number     Mass       (e)     Cova   Ionic  VDW   Symbol
    Na       Core       11      22.99   1.000000   0.970  0.000  2.300
    O        Core        8      16.00   0.183000   0.730  0.000  1.360
    O        Shell       8       0.00  -2.183000   0.730  0.000  1.360
    Cl       Core       17      35.45   1.485000   0.990  0.000  1.650
    Cl       Shell      17       0.00  -2.485000   0.990  0.000  1.650
    Mg       Core       12      24.31   0.415000   1.100  0.000  0.000
    Mg       Shell      12       0.00   1.585000   1.100  0.000  0.000
    Ca       Core       20      40.08  -1.135000   0.990  0.000  0.000
    Ca       Shell      20       0.00   3.135000   0.990  0.000  0.000
    Sr       Core       38      87.62  -1.251000   1.120  0.000  0.000
    Sr       Shell      38       0.00   3.251000   1.120  0.000  0.000
    Ba       Core       56     137.33  -7.203000   1.340  0.000  0.000
    Ba       Shell      56       0.00   9.203000   1.340  0.000  0.000
    Al       Core       13      26.98   3.000000   1.350  0.000  0.000
    Ga       Core       31      69.72   3.000000   1.220  0.000  0.000

  Lattice summation method               =    Ewald          (3-D)
                                         =    Parry          (2-D)
                                         =    Saunders et al (1-D)
  Accuracy factor for lattice sums       =   12.000

  Analytic derivatives to be used

  Time limit = Infinity

  Maximum range for interatomic potentials =    100000.000000 Angstroms

  General interatomic potentials :

Atom  Types   Potential      Parameter       Value         Units   Cutoffs(Ang)
  1     2                                                            Min /  Max
O    c O    s Spring (c-s)  Spring k 2       593.71600    eV*Ang^-2 0.000  0.800
                            Spring k 4       0.0000000    eV*Ang^-4
Cl   c Cl   s Spring (c-s)  Spring k 2       29.380000    eV*Ang^-2 0.000  0.800
                            Spring k 4       0.0000000    eV*Ang^-4
Mg   c Mg   s Spring (c-s)  Spring k 2       361.60000    eV*Ang^-2 0.000  0.800
                            Spring k 4       0.0000000    eV*Ang^-4
Ca   c Ca   s Spring (c-s)  Spring k 2       110.20000    eV*Ang^-2 0.000  0.800
                            Spring k 4       0.0000000    eV*Ang^-4
Sr   c Sr   s Spring (c-s)  Spring k 2       71.700000    eV*Ang^-2 0.000  0.800
                            Spring k 4       0.0000000    eV*Ang^-4
Ba   c Ba   s Spring (c-s)  Spring k 2       495.20000    eV*Ang^-2 0.000  0.800
                            Spring k 4       0.0000000    eV*Ang^-4
Na   c Na   c Buckingham    Buckingham A     1788.1900    eV        0.000 12.000
                            Buckingham rho  0.15900000    Ang
                            Buckingham C     0.0000000    eV*Ang^6
Na   c O    s Buckingham    Buckingham A     588.38000    eV        0.000 12.000
                            Buckingham rho  0.33800000    Ang
                            Buckingham C     0.0000000    eV*Ang^6
Na   c Cl   s Buckingham    Buckingham A     1170.4100    eV        0.000 12.000
                            Buckingham rho  0.31500000    Ang
                            Buckingham C     0.0000000    eV*Ang^6
O    s O    s Buckingham    Buckingham A     22764.300    eV        0.000 12.000
                            Buckingham rho  0.14900000    Ang
                            Buckingham C     13.190000    eV*Ang^6
O    s Cl   s Buckingham    Buckingham A     8286.9100    eV        0.000 12.000
                            Buckingham rho  0.25900000    Ang
                            Buckingham C     62.200000    eV*Ang^6
Cl   s Cl   s Buckingham    Buckingham A     1227.2000    eV        0.000 12.000
                            Buckingham rho  0.32100000    Ang
                            Buckingham C     14.530000    eV*Ang^6
O    s Mg   s Buckingham    Buckingham A     1428.5000    eV        0.000 12.000
                            Buckingham rho  0.29450000    Ang
                            Buckingham C     0.0000000    eV*Ang^6
Mg   s Cl   s Buckingham    Buckingham A     4914.5400    eV        0.000 12.000
                            Buckingham rho  0.25700000    Ang
                            Buckingham C     0.0000000    eV*Ang^6
O    s Ca   s Buckingham    Buckingham A     1090.4000    eV        0.000 12.000
                            Buckingham rho  0.34370000    Ang
                            Buckingham C     0.0000000    eV*Ang^6
Cl   s Ca   s Buckingham    Buckingham A     2302.0000    eV        0.000 12.000
                            Buckingham rho  0.34020000    Ang
                            Buckingham C     0.0000000    eV*Ang^6
O    s Sr   s Buckingham    Buckingham A     959.10000    eV        0.000 12.000
                            Buckingham rho  0.37210000    Ang
                            Buckingham C     0.0000000    eV*Ang^6
Cl   s Sr   s Buckingham    Buckingham A     2191.0900    eV        0.000 12.000
                            Buckingham rho  0.34570000    Ang
                            Buckingham C     0.0000000    eV*Ang^6
O    s Ba   s Buckingham    Buckingham A     905.70000    eV        0.000 12.000
                            Buckingham rho  0.39760000    Ang
                            Buckingham C     0.0000000    eV*Ang^6
Cl   s Ba   s Buckingham    Buckingham A     2704.5500    eV        0.000 12.000
                            Buckingham rho  0.35280000    Ang
                            Buckingham C     0.0000000    eV*Ang^6
Al   c O    s Buckingham    Buckingham A     1725.0000    eV        0.000 12.000
                            Buckingham rho  0.28970000    Ang
                            Buckingham C     0.0000000    eV*Ang^6
Al   c Cl   s Buckingham    Buckingham A     1736.1200    eV        0.000 12.000
                            Buckingham rho  0.29170000    Ang
                            Buckingham C     0.0000000    eV*Ang^6
Ga   c O    s Buckingham    Buckingham A     2901.1200    eV        0.000 12.000
                            Buckingham rho  0.27420000    Ang
                            Buckingham C     0.0000000    eV*Ang^6
Ga   c Cl   s Buckingham    Buckingham A     924.20000    eV        0.000 12.000
                            Buckingham rho  0.34280000    Ang
                            Buckingham C     0.0000000    eV*Ang^6

*  Output for configuration   1                                                *

  Components of energy :

  Interatomic potentials     =           4.94315381 eV
  Monopole - monopole (real) =         -10.03624526 eV
  Monopole - monopole (recip)=         -29.53581274 eV
  Monopole - monopole (total)=         -39.57205800 eV
  Total lattice energy       =         -34.62890419 eV
  Total lattice energy       =           -3341.1599 kJ/(mole unit cells)

  Number of variables =        1

  Maximum number of calculations  =          1000
  Maximum Hessian update interval =            10
  Maximum step size               =   1.000000000
  Maximum parameter tolerance     =   0.000010000
  Maximum function  tolerance     =   0.000010000
  Maximum gradient  tolerance     =   0.001000000
  Maximum gradient  component     =   0.010000000

  Symmetry constrained optimisation

  Symmetry used for second derivatives

  Cell parameters to be optimised using strains

  Newton-Raphson optimiser to be used

  BFGS hessian update to be used

  Lower half triangular hessian to be used

  Start of bulk optimisation :

  ** Hessian calculated **

  **** Optimisation achieved ****

  Final energy =     -34.67767136 eV
  Final Gnorm  =       0.00000010

  Components of energy :

  Interatomic potentials     =           5.77546103 eV
  Monopole - monopole (real) =         -10.25970290 eV
  Monopole - monopole (recip)=         -30.19342950 eV
  Monopole - monopole (total)=         -40.45313239 eV
  Total lattice energy       =         -34.67767136 eV
  Total lattice energy       =           -3345.8652 kJ/(mole unit cells)

  Final asymmetric unit coordinates :

   No.  Atomic        x           y           z         Radius
        Label       (Frac)      (Frac)      (Frac)       (Angs)
     1  Cl    c     0.000000    0.000000    0.000000    0.000000
     2  O     c     0.500000    0.500000    0.500000    0.000000
     3  Na    c     0.500000    0.500000    0.000000    0.000000
     4  Cl    s     0.000000    0.000000    0.000000    0.000000
     5  O     s     0.500000    0.500000    0.500000    0.000000

  Final Cartesian lattice vectors (Angstroms) :

        4.405902    0.000000    0.000000
        0.000000    4.405902    0.000000
        0.000000    0.000000    4.405902

  Final cell parameters and derivatives :

       a            4.405902 Angstrom     dE/de1(xx)     0.000000 eV/strain
       b            4.405902 Angstrom     dE/de2(yy)     0.000000 eV/strain
       c            4.405902 Angstrom     dE/de3(zz)     0.000000 eV/strain
       alpha       90.000000 Degrees      dE/de4(yz)     0.000000 eV/strain
[...]
    271 z          6.608853      6.597862    -0.010991    Cartesian   -0.17
    272 x          2.202951      2.202951     0.000000    Cartesian    0.00
    272 y         -6.608853     -6.575013     0.033840    Cartesian   -0.51
    272 z          2.202951      2.204306     0.001355    Cartesian    0.06
    273 x          6.608853      6.615529     0.006676    Cartesian    0.10
    273 y          6.608853      6.620305     0.011451    Cartesian    0.17
    273 z         -2.202951     -2.211861    -0.008910    Cartesian    0.40
    274 x          6.608853      6.616890     0.008037    Cartesian    0.12
    274 y         -2.202951     -2.207888    -0.004937    Cartesian    0.22
    274 z          6.608853      6.613948     0.005094    Cartesian    0.08
    275 x          4.405902      4.407506     0.001604    Cartesian    0.04
    275 y          0.000000      0.000990     0.000990    Cartesian    0.00
    275 z          8.811805      8.844542     0.032738    Cartesian    0.37
    276 x          4.405902      4.409309     0.003407    Cartesian    0.08
    276 y         -4.405902     -4.430853    -0.024950    Cartesian    0.57
    276 z         -4.405902     -4.416231    -0.010328    Cartesian    0.23
    277 x          8.811805      8.847331     0.035526    Cartesian    0.40
    277 y          4.405902      4.418642     0.012739    Cartesian    0.29
    277 z          4.405902      4.412433     0.006531    Cartesian    0.15
    278 x          4.405902      4.411465     0.005563    Cartesian    0.13
    278 y          8.811805      8.848395     0.036590    Cartesian    0.42
    278 z          0.000000     -0.002189    -0.002189    Cartesian    0.00
    279 x          2.202951      2.202951     0.000000    Cartesian    0.00
    279 y         -2.202951     -2.198235     0.004716    Cartesian   -0.21
    279 z         -6.608853     -6.613238    -0.004384    Cartesian    0.07
    280 x          2.202951      2.202951     0.000000    Cartesian    0.00
    280 y         -6.608853     -6.597160     0.011694    Cartesian   -0.18
    280 z         -2.202951     -2.208283    -0.005332    Cartesian    0.24
    281 x          4.405902      4.405978     0.000076    Cartesian    0.00
    281 y          4.405902      4.414928     0.009026    Cartesian    0.20
    281 z          8.811805      8.844275     0.032471    Cartesian    0.37
    282 x          8.811805      8.836365     0.024560    Cartesian    0.28
    282 y          0.000000     -0.004221    -0.004221    Cartesian    0.00
    282 z         -4.405902     -4.408593    -0.002690    Cartesian    0.06
    283 x          4.405902      4.413044     0.007141    Cartesian    0.16
    283 y          8.811805      8.843082     0.031277    Cartesian    0.35
    283 z          4.405902      4.414198     0.008296    Cartesian    0.19
    284 x          8.811805      8.825654     0.013850    Cartesian    0.16
    284 y         -4.405902     -4.414077    -0.008174    Cartesian    0.19
    284 z          0.000000      0.000914     0.000914    Cartesian    0.00
    285 x          6.608853      6.597715    -0.011138    Cartesian   -0.17
    285 y          2.202951      2.202921    -0.000030    Cartesian   -0.00
    285 z         -6.608853     -6.601462     0.007392    Cartesian   -0.11
    286 x          6.608853      6.622312     0.013458    Cartesian    0.20
    286 y          6.608853      6.623240     0.014386    Cartesian    0.22
    286 z          6.608853      6.619851     0.010997    Cartesian    0.17
    287 x          6.608853      6.602172    -0.006681    Cartesian   -0.10
    287 y         -6.608853     -6.596064     0.012790    Cartesian   -0.19
    287 z          2.202951      2.199216    -0.003736    Cartesian   -0.17
    288 x         11.014756     11.011253    -0.003503    Cartesian   -0.03
    288 y          2.202951      2.207368     0.004417    Cartesian    0.20
    288 z          2.202951      2.206376     0.003425    Cartesian    0.16
    289 x          8.811805      8.839882     0.028077    Cartesian    0.32
    289 y          4.405902      4.416018     0.010115    Cartesian    0.23
    289 z         -4.405902     -4.404585     0.001318    Cartesian   -0.03
    290 x          8.811805      8.829254     0.017450    Cartesian    0.20
    290 y         -4.405902     -4.412153    -0.006250    Cartesian    0.14
    290 z          4.405902      4.415147     0.009244    Cartesian    0.21
    291 x          2.202951      2.202951     0.000000    Cartesian    0.00
    291 y          6.608853      6.598471    -0.010382    Cartesian   -0.16
    291 z         -6.608853     -6.605782     0.003072    Cartesian   -0.05
    292 x          2.202951      2.202951     0.000000    Cartesian    0.00
    292 y         -6.608853     -6.590852     0.018001    Cartesian   -0.27
    292 z          6.608853      6.589498    -0.019356    Cartesian   -0.29
    293 x          6.608853      6.618368     0.009514    Cartesian    0.14
    293 y         -2.202951     -2.210739    -0.007788    Cartesian    0.35
    293 z         -6.608853     -6.616819    -0.007965    Cartesian    0.12
    294 x          6.608853      6.609369     0.000515    Cartesian    0.01
    294 y         -6.608853     -6.606949     0.001904    Cartesian   -0.03
    294 z         -2.202951     -2.202813     0.000139    Cartesian   -0.01
    295 x         11.014756     11.002486    -0.012270    Cartesian   -0.11
    295 y          2.202951      2.205950     0.002999    Cartesian    0.14
    295 z         -2.202951     -2.204408    -0.001457    Cartesian    0.07
    296 x         11.014756     11.009980    -0.004776    Cartesian   -0.04
    296 y         -2.202951     -2.198994     0.003957    Cartesian   -0.18
    296 z          2.202951      2.202978     0.000027    Cartesian    0.00
    297 x          4.405902      4.412275     0.006373    Cartesian    0.14
    297 y          8.811805      8.842069     0.030264    Cartesian    0.34
    297 z         -4.405902     -4.404324     0.001579    Cartesian   -0.04
    298 x          4.405902      4.410505     0.004603    Cartesian    0.10
    298 y         -4.405902     -4.406626    -0.000724    Cartesian    0.02
    298 z          8.811805      8.828148     0.016344    Cartesian    0.19
    299 x          2.202951      2.202951     0.000000    Cartesian    0.00
    299 y          2.202951      2.207387     0.004436    Cartesian    0.20
    299 z         11.014756     11.026868     0.012112    Cartesian    0.11
    300 x          2.202951      2.202951     0.000000    Cartesian    0.00
    300 y         11.014756     11.017761     0.003005    Cartesian    0.03
    300 z          2.202951      2.211159     0.008207    Cartesian    0.37
    301 x         11.014756     11.010343    -0.004413    Cartesian   -0.04
    301 y         -2.202951     -2.199634     0.003317    Cartesian   -0.15
    301 z         -2.202951     -2.200307     0.002644    Cartesian   -0.12
    302 x          4.405902      4.409722     0.003819    Cartesian    0.09
    302 y          0.000000     -0.002439    -0.002439    Cartesian    0.00
    302 z         -8.811805     -8.840789    -0.028984    Cartesian    0.33
    303 x          8.811805      8.825295     0.013491    Cartesian    0.15
    303 y          0.000000     -0.000260    -0.000260    Cartesian    0.00
    303 z          8.811805      8.827728     0.015923    Cartesian    0.18
    304 x          8.811805      8.829759     0.017954    Cartesian    0.20
    304 y          8.811805      8.828955     0.017151    Cartesian    0.19
    304 z          0.000000      0.005261     0.005261    Cartesian    0.00
    305 x          8.811805      8.825738     0.013933    Cartesian    0.16
    305 y         -4.405902     -4.422189    -0.016287    Cartesian    0.37
    305 z         -4.405902     -4.413584    -0.007681    Cartesian    0.17
    306 x          4.405902      4.405647    -0.000255    Cartesian   -0.01
    306 y         -8.811805     -8.831227    -0.019423    Cartesian    0.22
    306 z          0.000000      0.001173     0.001173    Cartesian    0.00
    307 x          2.202951      2.202951     0.000000    Cartesian    0.00
    307 y         11.014756     11.010614    -0.004142    Cartesian   -0.04
    307 z         -2.202951     -2.214449    -0.011498    Cartesian    0.52
    308 x          2.202951      2.202951     0.000000    Cartesian    0.00
    308 y         -2.202951     -2.212052    -0.009101    Cartesian    0.41
    308 z         11.014756     11.008362    -0.006394    Cartesian   -0.06
    309 x          6.608853      6.618420     0.009566    Cartesian    0.14
    309 y          6.608853      6.618722     0.009869    Cartesian    0.15
    309 z         -6.608853     -6.615952    -0.007099    Cartesian    0.11
    310 x          6.608853      6.608398    -0.000456    Cartesian   -0.01
    310 y         -6.608853     -6.607685     0.001169    Cartesian   -0.02
    310 z          6.608853      6.609173     0.000320    Cartesian    0.00
    311 x         11.014756     11.018249     0.003494    Cartesian    0.03
    311 y          2.202951      2.204793     0.001842    Cartesian    0.08
    311 z          6.608853      6.605981    -0.002873    Cartesian   -0.04
    312 x         11.014756     11.020424     0.005668    Cartesian    0.05
    312 y          6.608853      6.613027     0.004174    Cartesian    0.06
    312 z          2.202951      2.203786     0.000835    Cartesian    0.04
    313 x          8.811805      8.834286     0.022482    Cartesian    0.26
    313 y          8.811805      8.830333     0.018529    Cartesian    0.21
    313 z          4.405902      4.414198     0.008296    Cartesian    0.19
    314 x          4.405902      4.408616     0.002714    Cartesian    0.06
    314 y          4.405902      4.407765     0.001862    Cartesian    0.04
    314 z         -8.811805     -8.841452    -0.029647    Cartesian    0.34
    315 x          4.405902      4.405008    -0.000894    Cartesian   -0.02
    315 y         -8.811805     -8.825318    -0.013513    Cartesian    0.15
    315 z          4.405902      4.406710     0.000807    Cartesian    0.02
    316 x          8.811805      8.830248     0.018443    Cartesian    0.21
    316 y          4.405902      4.411657     0.005755    Cartesian    0.13
    316 z          8.811805      8.830724     0.018920    Cartesian    0.21
    317 x          2.202951      2.202951     0.000000    Cartesian    0.00
    317 y         -6.608853     -6.612568    -0.003714    Cartesian    0.06
    317 z         -6.608853     -6.609715    -0.000861    Cartesian    0.01
    318 x          6.608853      6.612824     0.003970    Cartesian    0.06
    318 y          2.202951      2.202573    -0.000379    Cartesian   -0.02
    318 z         11.014756     11.018660     0.003904    Cartesian    0.04
    319 x          6.608853      6.609471     0.000617    Cartesian    0.01
    319 y         11.014756     11.020776     0.006020    Cartesian    0.05
    319 z          2.202951      2.202180    -0.000772    Cartesian   -0.04
    320 x         11.014756     11.017615     0.002859    Cartesian    0.03
    320 y          6.608853      6.611973     0.003120    Cartesian    0.05
    320 z         -2.202951     -2.201357     0.001594    Cartesian   -0.07
    321 x         11.014756     11.016781     0.002025    Cartesian    0.02
    321 y         -2.202951     -2.201716     0.001235    Cartesian   -0.06
    321 z          6.608853      6.611647     0.002794    Cartesian    0.04
    322 x          4.405902      4.412777     0.006875    Cartesian    0.16
    322 y          8.811805      8.825159     0.013355    Cartesian    0.15
    322 z          8.811805      8.828710     0.016906    Cartesian    0.19
    323 x         13.217707     13.241912     0.024205    Cartesian    0.18
    323 y          0.000000     -0.001461    -0.001461    Cartesian    0.00
    323 z          0.000000     -0.000682    -0.000682    Cartesian    0.00
    324 x          6.608853      6.613255     0.004402    Cartesian    0.07
    324 y         11.014756     11.021900     0.007145    Cartesian    0.06
    324 z         -2.202951     -2.205013    -0.002062    Cartesian    0.09
    325 x          2.202951      2.202951     0.000000    Cartesian    0.00
    325 y          6.608853      6.614623     0.005770    Cartesian    0.09
    325 z         11.014756     11.016941     0.002186    Cartesian    0.02
    326 x          2.202951      2.202951     0.000000    Cartesian    0.00
    326 y         11.014756     11.017932     0.003176    Cartesian    0.03
    326 z          6.608853      6.608494    -0.000359    Cartesian   -0.01
    327 x          6.608853      6.611477     0.002623    Cartesian    0.04
    327 y         -2.202951     -2.205469    -0.002518    Cartesian    0.11
    327 z         11.014756     11.019807     0.005051    Cartesian    0.05
    328 x          4.405902      4.412970     0.007067    Cartesian    0.16
    328 y         -4.405902     -4.423179    -0.017276    Cartesian    0.39
    328 z         -8.811805     -8.832869    -0.021064    Cartesian    0.24
    329 x          4.405902      4.409979     0.004076    Cartesian    0.09
    329 y         -8.811805     -8.830557    -0.018752    Cartesian    0.21
    329 z         -4.405902     -4.415956    -0.010053    Cartesian    0.23
    330 x          8.811805      8.831930     0.020125    Cartesian    0.23
    330 y          8.811805      8.834186     0.022381    Cartesian    0.25
    330 z         -4.405902     -4.415203    -0.009301    Cartesian    0.21
    331 x          8.811805      8.826845     0.015041    Cartesian    0.17
    331 y         -4.405902     -4.419252    -0.013349    Cartesian    0.30
    331 z          8.811805      8.829008     0.017203    Cartesian    0.20
    332 x         13.217707     13.239018     0.021311    Cartesian    0.16
    332 y          0.000000     -0.002243    -0.002243    Cartesian    0.00
    332 z          4.405902      4.412450     0.006548    Cartesian    0.15
    333 x         13.217707     13.244484     0.026777    Cartesian    0.20
    333 y          4.405902      4.409483     0.003580    Cartesian    0.08
    333 z          0.000000     -0.001213    -0.001213    Cartesian    0.00
    334 x          6.608853      6.612064     0.003211    Cartesian    0.05
    334 y         -6.608853     -6.614019    -0.005166    Cartesian    0.08
    334 z         -6.608853     -6.614260    -0.005406    Cartesian    0.08
    335 x         11.014756     11.018940     0.004184    Cartesian    0.04
    335 y          2.202951      2.205865     0.002914    Cartesian    0.13
    335 z         -6.608853     -6.608260     0.000593    Cartesian   -0.01
    336 x         11.014756     11.021973     0.007217    Cartesian    0.07
    336 y          6.608853      6.613315     0.004461    Cartesian    0.07
    336 z          6.608853      6.614161     0.005307    Cartesian    0.08
    337 x         11.014756     11.017442     0.002686    Cartesian    0.02
    337 y         -6.608853     -6.610218    -0.001365    Cartesian    0.02
    337 z          2.202951      2.206375     0.003424    Cartesian    0.16
    338 x         13.217707     13.241110     0.023403    Cartesian    0.18
    338 y          4.405902      4.412345     0.006443    Cartesian    0.15
    338 z          4.405902      4.415150     0.009247    Cartesian    0.21
    339 x          8.811805      8.828243     0.016439    Cartesian    0.19
    339 y          0.000000     -0.005574    -0.005574    Cartesian    0.00
    339 z         -8.811805     -8.837623    -0.025818    Cartesian    0.29
    340 x          8.811805      8.822026     0.010221    Cartesian    0.12
    340 y         -8.811805     -8.832780    -0.020976    Cartesian    0.24
    340 z          0.000000     -0.002943    -0.002943    Cartesian    0.00

  Time to end of optimisation  =       34.6633 seconds

  Timing analysis for GULP :

  Task / Subroutine                                          Time (Seconds)
  Calculation of reciprocal space energy and derivatives          0.0004
  Calculation of reciprocal space energy using symmetry           0.0007
  Calculation of real space energy and derivatives                0.0022
  Calculation of real space energy using symmetry                 0.0067
  Calculation for region 1 energy and derivatives (2-b)          18.1631
  Calculation for region 2a energy                               15.1305
  Calculation for region 2b energy                                0.0052
  Calculation and manipulation of Hessian matrix                  0.0983
  Calculation of matrix inversion                                 1.0903
  Symmetry generation of equivalent positions                     0.0026

  Dump file written as Na3OCl.grs

  Job Finished at 13:22.55 26th September  2021