  Job Started  at 14:33.31  2nd January    2021

  Number of CPUs =     1

  Total number of configurations input =      1

*  Input for Configuration =   1                                               *

  Formula = ClONa3

  Number of irreducible atoms/shells =       5

  Total number atoms/shells =       7

  Dimensionality = 3               :  Bulk

  Symmetry :

  Crystal family                   :  Cubic
  Crystal class  (Groth - 1921)    :  Cubic Hexakisoctahedral

  Space group (centrosymmetric)    :  P M 3 M

  Patterson group                  :  P m -3 m

  Cartesian lattice vectors (Angstroms) :

        4.504000    0.000000    0.000000
        0.000000    4.504000    0.000000
        0.000000    0.000000    4.504000

  Cell parameters (Angstroms/Degrees):

  a =       4.5040    alpha =  90.0000
  b =       4.5040    beta  =  90.0000
  c =       4.5040    gamma =  90.0000

  Initial cell volume =          91.368216 Angs**3

  Temperature of configuration =   0.00     K

  Pressure of configuration =         0.000 GPa

  Fractional coordinates of asymmetric unit :

   No.  Atomic       x           y          z         Charge      Occupancy
        Label      (Frac)      (Frac)     (Frac)        (e)         (Frac)
      1 Cl    c    0.000000    0.000000    0.000000     1.48500    1.000000
      2 O     c    0.500000    0.500000    0.500000     0.18300    1.000000
      3 Na    c    0.500000    0.500000    0.000000     1.00000    1.000000
      4 Cl    s    0.000000    0.000000    0.000000    -2.48500    1.000000
      5 O     s    0.500000    0.500000    0.500000    -2.18300    1.000000

  Constraints :

  Constraint no.      Unconstrained     Constrained    Coefficient    Offset
                         Variable         Variable
           1              Strain 1        Strain 2       1.00000      0.0000
           2              Strain 1        Strain 3       1.00000      0.0000

*  General input information                                                   *

  Species output for all configurations :

  Species    Type    Atomic    Atomic    Charge       Radii (Angs)     Library
                     Number     Mass       (e)     Cova   Ionic  VDW   Symbol
    Na       Core       11      22.99   1.000000   0.970  0.000  2.300
    O        Core        8      16.00   0.183000   0.730  0.000  1.360
    O        Shell       8       0.00  -2.183000   0.730  0.000  1.360
    Cl       Core       17      35.45   1.485000   0.990  0.000  1.650
    Cl       Shell      17       0.00  -2.485000   0.990  0.000  1.650
    Mg       Core       12      24.31   0.415000   1.100  0.000  0.000
    Mg       Shell      12       0.00   1.585000   1.100  0.000  0.000
    Ca       Core       20      40.08  -1.135000   0.990  0.000  0.000
    Ca       Shell      20       0.00   3.135000   0.990  0.000  0.000
    Sr       Core       38      87.62  -1.251000   1.120  0.000  0.000
    Sr       Shell      38       0.00   3.251000   1.120  0.000  0.000
    Ba       Core       56     137.33  -7.203000   1.340  0.000  0.000
    Ba       Shell      56       0.00   9.203000   1.340  0.000  0.000

  Lattice summation method               =    Ewald          (3-D)
                                         =    Parry          (2-D)
                                         =    Saunders et al (1-D)
  Accuracy factor for lattice sums       =   12.000

  Analytic derivatives to be used

  Time limit = Infinity

  Maximum range for interatomic potentials =    100000.000000 Angstroms

  General interatomic potentials :

Atom  Types   Potential      Parameter       Value         Units   Cutoffs(Ang)
  1     2                                                            Min /  Max
O    c O    s Spring (c-s)  Spring k 2       593.71600    eV*Ang^-2 0.000  0.800
                            Spring k 4       0.0000000    eV*Ang^-4
Cl   c Cl   s Spring (c-s)  Spring k 2       29.380000    eV*Ang^-2 0.000  0.800
                            Spring k 4       0.0000000    eV*Ang^-4
Mg   c Mg   s Spring (c-s)  Spring k 2       361.60000    eV*Ang^-2 0.000  0.800
                            Spring k 4       0.0000000    eV*Ang^-4
Ca   c Ca   s Spring (c-s)  Spring k 2       110.20000    eV*Ang^-2 0.000  0.800
                            Spring k 4       0.0000000    eV*Ang^-4
Sr   c Sr   s Spring (c-s)  Spring k 2       71.700000    eV*Ang^-2 0.000  0.800
                            Spring k 4       0.0000000    eV*Ang^-4
Ba   c Ba   s Spring (c-s)  Spring k 2       495.20000    eV*Ang^-2 0.000  0.800
                            Spring k 4       0.0000000    eV*Ang^-4
Na   c Na   c Buckingham    Buckingham A     1788.1900    eV        0.000 12.000
                            Buckingham rho  0.15900000    Ang
                            Buckingham C     0.0000000    eV*Ang^6
Na   c O    s Buckingham    Buckingham A     1042.9600    eV        0.000 12.000
                            Buckingham rho  0.31000000    Ang
                            Buckingham C     0.0000000    eV*Ang^6
Na   c Cl   s Buckingham    Buckingham A     1591.3800    eV        0.000 12.000
                            Buckingham rho  0.28800000    Ang
                            Buckingham C     0.0000000    eV*Ang^6
O    s O    s Buckingham    Buckingham A     22764.300    eV        0.000 12.000
                            Buckingham rho  0.14900000    Ang
                            Buckingham C     13.190000    eV*Ang^6
O    s Cl   s Buckingham    Buckingham A     8286.9100    eV        0.000 12.000
                            Buckingham rho  0.25900000    Ang
                            Buckingham C     62.200000    eV*Ang^6
Cl   s Cl   s Buckingham    Buckingham A     1227.2000    eV        0.000 12.000
                            Buckingham rho  0.32100000    Ang
                            Buckingham C     14.530000    eV*Ang^6
O    s Mg   s Buckingham    Buckingham A     1428.5000    eV        0.000 12.000
                            Buckingham rho  0.29450000    Ang
                            Buckingham C     0.0000000    eV*Ang^6
Mg   s Cl   s Buckingham    Buckingham A     4914.5400    eV        0.000 12.000
                            Buckingham rho  0.25700000    Ang
                            Buckingham C     0.0000000    eV*Ang^6
O    s Ca   s Buckingham    Buckingham A     1090.4000    eV        0.000 12.000
                            Buckingham rho  0.34370000    Ang
                            Buckingham C     0.0000000    eV*Ang^6
Cl   s Ca   s Buckingham    Buckingham A     2302.0000    eV        0.000 12.000
                            Buckingham rho  0.34020000    Ang
                            Buckingham C     0.0000000    eV*Ang^6
O    s Sr   s Buckingham    Buckingham A     959.10000    eV        0.000 12.000
                            Buckingham rho  0.37210000    Ang
                            Buckingham C     0.0000000    eV*Ang^6
Cl   s Sr   s Buckingham    Buckingham A     2191.0900    eV        0.000 12.000
                            Buckingham rho  0.34570000    Ang
                            Buckingham C     0.0000000    eV*Ang^6
O    s Ba   s Buckingham    Buckingham A     905.70000    eV        0.000 12.000
                            Buckingham rho  0.39760000    Ang
                            Buckingham C     0.0000000    eV*Ang^6
Cl   s Ba   s Buckingham    Buckingham A     2704.5500    eV        0.000 12.000
                            Buckingham rho  0.35280000    Ang
                            Buckingham C     0.0000000    eV*Ang^6

*  Output for configuration   1                                                *

  Components of energy :

  Interatomic potentials     =           4.53951198 eV
  Monopole - monopole (real) =         -10.03624526 eV
  Monopole - monopole (recip)=         -29.53581274 eV
  Monopole - monopole (total)=         -39.57205800 eV
  Total lattice energy       =         -35.03254602 eV
  Total lattice energy       =           -3380.1052 kJ/(mole unit cells)

  Number of variables =        1

  Maximum number of calculations  =          1000
  Maximum Hessian update interval =            10
  Maximum step size               =   1.000000000
  Maximum parameter tolerance     =   0.000010000
  Maximum function  tolerance     =   0.000010000
  Maximum gradient  tolerance     =   0.001000000
  Maximum gradient  component     =   0.010000000

  Symmetry constrained optimisation

  Symmetry used for second derivatives

  Cell parameters to be optimised using strains

  Newton-Raphson optimiser to be used

  BFGS hessian update to be used

  Lower half triangular hessian to be used

  Start of bulk optimisation :

  ** Hessian calculated **

  **** Optimisation achieved ****

  Final energy =     -35.09524226 eV
  Final Gnorm  =       0.00000020

  Components of energy :

  Interatomic potentials     =           5.44507162 eV
  Monopole - monopole (real) =         -10.28181382 eV
  Monopole - monopole (recip)=         -30.25850005 eV
  Monopole - monopole (total)=         -40.54031388 eV
  Total lattice energy       =         -35.09524226 eV
  Total lattice energy       =           -3386.1544 kJ/(mole unit cells)

  Final asymmetric unit coordinates :

   No.  Atomic        x           y           z         Radius
        Label       (Frac)      (Frac)      (Frac)       (Angs)
     1  Cl    c     0.000000    0.000000    0.000000    0.000000
     2  O     c     0.500000    0.500000    0.500000    0.000000
     3  Na    c     0.500000    0.500000    0.000000    0.000000
     4  Cl    s     0.000000    0.000000    0.000000    0.000000
     5  O     s     0.500000    0.500000    0.500000    0.000000

  Final Cartesian lattice vectors (Angstroms) :

        4.396427    0.000000    0.000000
        0.000000    4.396427    0.000000
        0.000000    0.000000    4.396427

  Final cell parameters and derivatives :

       a            4.396427 Angstrom     dE/de1(xx)     0.000000 eV/strain
       b            4.396427 Angstrom     dE/de2(yy)     0.000000 eV/strain
       c            4.396427 Angstrom     dE/de3(zz)     0.000000 eV/strain
       alpha       90.000000 Degrees      dE/de4(yz)     0.000000 eV/strain
       beta        90.000000 Degrees      dE/de5(xz)     0.000000 eV/strain
       gamma       90.000000 Degrees      dE/de6(xy)     0.000000 eV/strain

  Primitive cell volume =            84.976675 Angs**3

  Density of cell =      2.353179 g/cm**3

  Non-primitive cell volume =            84.976675 Angs**3

  Final internal derivatives :

   No.  Atomic          a             b             c           Radius
        Label          (eV)          (eV)          (eV)        (eV/Angs)
      1 Cl    c       0.000000      0.000000      0.000000      0.000000
      2 O     c       0.000000      0.000000      0.000000      0.000000
      3 Na    c       0.000000      0.000000      0.000000      0.000000
      4 Cl    s       0.000000      0.000000      0.000000      0.000000
      5 O     s       0.000000      0.000000      0.000000      0.000000
  Maximum abs         0.000000      0.000000      0.000000      0.000000

  Comparison of initial and final structures :

[...]
    11  O     c     4.400175    4.400175   -2.189285    0.183000
    12  O     c     0.000000    0.000000    6.631093    0.183000
    13  Cl    c     2.261308    6.684973    0.000000    1.485000
    14  Na    c     2.190153    0.000000    6.944280    1.000000
    15  Na    c     6.542607    0.000000   -2.691827    1.000000
    16  Na    c     4.378309    4.378309    4.388572    1.000000
    17  O     c     0.000000    4.353963    6.541770    0.183000
    18  Cl    c     2.205374    6.649004    4.435857    1.485000
    19  Na    c     2.198400    4.405786    6.451860    1.000000
    20  Na    c     6.592220    4.371581   -2.218977    1.000000
    21  Na    c     0.000000    0.000000    8.851244    1.000000
    22  Na    c     0.000000    8.514796    0.000000    1.000000
    23  O     c     4.405669    4.405669    6.598696    0.183000
    24  O     c     0.000000    8.752410   -2.225346    0.183000
    25  Cl    c     2.107487    2.107487    8.823832    1.485000
    26  Cl    c     6.656138    6.656138    0.000000    1.485000
    27  Na    c     2.191618    8.748996   -2.097404    1.000000
    28  Na    c     6.570326    0.000000    6.324574    1.000000
    29  Na    c     0.000000    4.587770    8.753041    1.000000
    30  Na    c     4.433540    8.749511    0.000000    1.000000
    31  Na    c     0.000000    8.965676    4.398927    1.000000
    32  O     s     0.000000    0.000000   -2.227231   -2.183000
    33  Cl    s     2.269915    2.269915    0.000000   -2.485000
    34  O     s     0.000000    4.358955   -2.172291   -2.183000
    35  Cl    s     2.412675    2.412675    4.420611   -2.485000
    36  O     s     4.400178    4.400178   -2.189288   -2.183000
    37  O     s     0.000000    0.000000    6.631350   -2.183000
    38  Cl    s     2.258112    6.695127    0.000000   -2.485000
    39  O     s     0.000000    4.353910    6.541818   -2.183000
    40  Cl    s     2.196842    6.650960    4.437816   -2.485000
    41  O     s     4.405693    4.405693    6.598662   -2.183000
    42  O     s     0.000000    8.752443   -2.225437   -2.183000
    43  Cl    s     2.092742    2.092742    8.816867   -2.485000
    44  Cl    s     6.661214    6.661214    0.000000   -2.485000

  Final derivatives for region 1 :

   No.  Atomic          x             y             z            Radius
        Label       (eV/Angs)     (eV/Angs)     (eV/Angs)       (eV/Angs)
     1  O     c       0.000000      0.000000      0.000420      0.000000
     2  Cl    c      -0.000516      0.000000      0.000000      0.000000
     3  Na    c      -0.001349      0.000000      0.000310      0.000000
     4  Na    c       0.000000      0.000157      0.000000      0.000000
     5  Na    c       0.000000      0.000000     -0.000112      0.000000
     6  O     c       0.000000     -0.000048      0.000471      0.000000
     7  Na    c      -0.000052      0.000492     -0.000636      0.000000
     8  Cl    c       0.000447      0.000000     -0.001434      0.000000
     9  Na    c       0.000375      0.000000      0.000000      0.000000
    10  Na    c       0.000000      0.000353     -0.000019      0.000000
    11  O     c       0.000444      0.000000      0.000343      0.000000
    12  O     c       0.000000      0.000000     -0.000223      0.000000
    13  Cl    c      -0.000015     -0.000187      0.000000      0.000000
    14  Na    c       0.000119      0.000000      0.000363      0.000000
    15  Na    c      -0.000102      0.000000     -0.000609      0.000000
    16  Na    c       0.000349      0.000000     -0.000289      0.000000
    17  O     c       0.000000      0.001580      0.001933      0.000000
    18  Cl    c      -0.000065      0.000265      0.000048      0.000000
    19  Na    c       0.000173      0.000466     -0.000189      0.000000
    20  Na    c      -0.000270      0.000510      0.000385      0.000000
    21  Na    c       0.000000      0.000000      0.000088      0.000000
    22  Na    c       0.000000     -0.000048      0.000000      0.000000
    23  O     c      -0.000539      0.000000      0.000181      0.000000
    24  O     c       0.000000      0.001651      0.001131      0.000000
    25  Cl    c       0.000957      0.000000      0.000603      0.000000
    26  Cl    c      -0.001005      0.000000      0.000000      0.000000
    27  Na    c      -0.000209     -0.000415     -0.000237      0.000000
    28  Na    c       0.000161      0.000000     -0.000097      0.000000
    29  Na    c       0.000000     -0.000090     -0.000057      0.000000
    30  Na    c       0.000245      0.000128      0.000000      0.000000
    31  Na    c       0.000000     -0.000311     -0.000012      0.000000
    32  O     s       0.000000      0.000000     -0.001008      0.000000
    33  Cl    s       0.000134      0.000000      0.000000      0.000000
    34  O     s       0.000000      0.001282     -0.000700      0.000000
    35  Cl    s      -0.002985      0.000000      0.000439      0.000000
    36  O     s       0.000430      0.000000     -0.000443      0.000000
    37  O     s       0.000000      0.000000     -0.001049      0.000000
    38  Cl    s      -0.001061     -0.000598      0.000000      0.000000
    39  O     s       0.000000      0.000494      0.000923      0.000000
    40  Cl    s       0.000230     -0.001207     -0.000632      0.000000
    41  O     s      -0.001728      0.000000     -0.000280      0.000000
    42  O     s       0.000000      0.000952      0.001383      0.000000
    43  Cl    s       0.000355      0.000000     -0.000752      0.000000
    44  Cl    s       0.000390      0.000000      0.000000      0.000000

  Comparison of initial and final region 1 :

  Parameter   Initial value   Final value   Difference    Units      Percent
      1 x          2.198214      2.198214     0.000000    Cartesian    0.00
      1 y          2.198214      2.198214     0.000000    Cartesian    0.00
      1 z         -2.198214     -2.227192    -0.028979    Cartesian    1.32
      2 x          4.396427      4.479063     0.082635    Cartesian    1.88
      2 y          4.396427      4.479063     0.082635    Cartesian    1.88
      2 z          0.000000      0.000000     0.000000    Cartesian    0.00
      3 x          4.396427      4.323423    -0.073005    Cartesian   -1.66
      3 y          2.198214      2.198214     0.000000    Cartesian    0.00
      3 z         -2.198214     -1.652537     0.545676    Cartesian  -24.82
      4 x          2.198214      2.198214     0.000000    Cartesian    0.00
      4 y          6.594641      7.127327     0.532686    Cartesian    8.08
      4 z          0.000000      0.000000     0.000000    Cartesian    0.00
      5 x          2.198214      2.198214     0.000000    Cartesian    0.00
      5 y          2.198214      2.198214     0.000000    Cartesian    0.00
      5 z          4.396427      4.390500    -0.005928    Cartesian   -0.13
      6 x          2.198214      2.198214     0.000000    Cartesian    0.00
      6 y          6.594641      6.557131    -0.037510    Cartesian   -0.57
      6 z         -2.198214     -2.172261     0.025953    Cartesian   -1.18
      7 x          4.396427      4.386618    -0.009810    Cartesian   -0.22
      7 y          6.594641      6.510896    -0.083745    Cartesian   -1.27
      7 z         -2.198214     -2.204295    -0.006081    Cartesian    0.28
      8 x          4.396427      4.591568     0.195140    Cartesian    4.44
      8 y          4.396427      4.591568     0.195140    Cartesian    4.44
      8 z          4.396427      4.416893     0.020466    Cartesian    0.47
      9 x          6.594641      6.598137     0.003496    Cartesian    0.05
      9 y          6.594641      6.598137     0.003496    Cartesian    0.05
      9 z          0.000000      0.000000     0.000000    Cartesian    0.00
     10 x          2.198214      2.198214     0.000000    Cartesian    0.00
     10 y          6.594641      6.021968    -0.572673    Cartesian   -8.68
     10 z          4.396427      4.351804    -0.044623    Cartesian   -1.01
     11 x          6.594641      6.598389     0.003748    Cartesian    0.06
     11 y          6.594641      6.598389     0.003748    Cartesian    0.06
     11 z         -2.198214     -2.189285     0.008929    Cartesian   -0.41
     12 x          2.198214      2.198214     0.000000    Cartesian    0.00
     12 y          2.198214      2.198214     0.000000    Cartesian    0.00
     12 z          6.594641      6.631093     0.036452    Cartesian    0.55
     13 x          4.396427      4.459521     0.063094    Cartesian    1.44
     13 y          8.792855      8.883187     0.090332    Cartesian    1.03
     13 z          0.000000      0.000000     0.000000    Cartesian    0.00
     14 x          4.396427      4.388367    -0.008061    Cartesian   -0.18
     14 y          2.198214      2.198214     0.000000    Cartesian    0.00
     14 z          6.594641      6.944280     0.349639    Cartesian    5.30
     15 x          8.792855      8.740821    -0.052034    Cartesian   -0.59
     15 y          2.198214      2.198214     0.000000    Cartesian    0.00
     15 z         -2.198214     -2.691827    -0.493614    Cartesian   22.46
     16 x          6.594641      6.576523    -0.018118    Cartesian   -0.27
     16 y          6.594641      6.576523    -0.018118    Cartesian   -0.27
     16 z          4.396427      4.388572    -0.007856    Cartesian   -0.18
     17 x          2.198214      2.198214     0.000000    Cartesian    0.00
     17 y          6.594641      6.552177    -0.042464    Cartesian   -0.64
     17 z          6.594641      6.541770    -0.052871    Cartesian   -0.80
     18 x          4.396427      4.403588     0.007160    Cartesian    0.16
     18 y          8.792855      8.847218     0.054363    Cartesian    0.62
     18 z          4.396427      4.435857     0.039430    Cartesian    0.90
     19 x          4.396427      4.396614     0.000187    Cartesian    0.00
     19 y          6.594641      6.604000     0.009359    Cartesian    0.14
     19 z          6.594641      6.451860    -0.142781    Cartesian   -2.17
     20 x          8.792855      8.790434    -0.002421    Cartesian   -0.03
     20 y          6.594641      6.569795    -0.024846    Cartesian   -0.38
     20 z         -2.198214     -2.218977    -0.020763    Cartesian    0.94
     21 x          2.198214      2.198214     0.000000    Cartesian    0.00
     21 y          2.198214      2.198214     0.000000    Cartesian    0.00
     21 z          8.792855      8.851244     0.058389    Cartesian    0.66
     22 x          2.198214      2.198214     0.000000    Cartesian    0.00
     22 y         10.991069     10.713010    -0.278059    Cartesian   -2.53
     22 z          0.000000      0.000000     0.000000    Cartesian    0.00
     23 x          6.594641      6.603883     0.009242    Cartesian    0.14
     23 y          6.594641      6.603883     0.009242    Cartesian    0.14
     23 z          6.594641      6.598696     0.004054    Cartesian    0.06
     24 x          2.198214      2.198214     0.000000    Cartesian    0.00
     24 y         10.991069     10.950624    -0.040445    Cartesian   -0.37
     24 z         -2.198214     -2.225346    -0.027133    Cartesian    1.23
     25 x          4.396427      4.305701    -0.090727    Cartesian   -2.06
     25 y          4.396427      4.305701    -0.090727    Cartesian   -2.06
     25 z          8.792855      8.823832     0.030977    Cartesian    0.35
     26 x          8.792855      8.854352     0.061497    Cartesian    0.70
     26 y          8.792855      8.854352     0.061497    Cartesian    0.70
     26 z          0.000000      0.000000     0.000000    Cartesian    0.00
     27 x          4.396427      4.389831    -0.006596    Cartesian   -0.15
     27 y         10.991069     10.947210    -0.043859    Cartesian   -0.40
     27 z         -2.198214     -2.097404     0.100810    Cartesian   -4.59
     28 x          8.792855      8.768539    -0.024316    Cartesian   -0.28
     28 y          2.198214      2.198214     0.000000    Cartesian    0.00
     28 z          6.594641      6.324574    -0.270068    Cartesian   -4.10
     29 x          2.198214      2.198214     0.000000    Cartesian    0.00
     29 y          6.594641      6.785984     0.191343    Cartesian    2.90
     29 z          8.792855      8.753041    -0.039814    Cartesian   -0.45
     30 x          6.594641      6.631754     0.037113    Cartesian    0.56
     30 y         10.991069     10.947725    -0.043344    Cartesian   -0.39
     30 z          0.000000      0.000000     0.000000    Cartesian    0.00
     31 x          2.198214      2.198214     0.000000    Cartesian    0.00
     31 y         10.991069     11.163890     0.172822    Cartesian    1.57
     31 z          4.396427      4.398927     0.002499    Cartesian    0.06
     32 x          2.198214      2.198214     0.000000    Cartesian    0.00
     32 y          2.198214      2.198214     0.000000    Cartesian    0.00
     32 z         -2.198214     -2.227231    -0.029017    Cartesian    1.32
     33 x          4.396427      4.468129     0.071702    Cartesian    1.63
     33 y          4.396427      4.468129     0.071702    Cartesian    1.63
     33 z          0.000000      0.000000     0.000000    Cartesian    0.00
     34 x          2.198214      2.198214     0.000000    Cartesian    0.00
     34 y          6.594641      6.557169    -0.037472    Cartesian   -0.57
     34 z         -2.198214     -2.172291     0.025923    Cartesian   -1.18
     35 x          4.396427      4.610889     0.214462    Cartesian    4.88
     35 y          4.396427      4.610889     0.214462    Cartesian    4.88
     35 z          4.396427      4.420611     0.024183    Cartesian    0.55
     36 x          6.594641      6.598392     0.003751    Cartesian    0.06
     36 y          6.594641      6.598392     0.003751    Cartesian    0.06
     36 z         -2.198214     -2.189288     0.008926    Cartesian   -0.41
     37 x          2.198214      2.198214     0.000000    Cartesian    0.00
     37 y          2.198214      2.198214     0.000000    Cartesian    0.00
     37 z          6.594641      6.631350     0.036709    Cartesian    0.56
     38 x          4.396427      4.456326     0.059899    Cartesian    1.36
     38 y          8.792855      8.893341     0.100486    Cartesian    1.14
     38 z          0.000000      0.000000     0.000000    Cartesian    0.00
     39 x          2.198214      2.198214     0.000000    Cartesian    0.00
     39 y          6.594641      6.552124    -0.042517    Cartesian   -0.64
     39 z          6.594641      6.541818    -0.052823    Cartesian   -0.80
     40 x          4.396427      4.395056    -0.001372    Cartesian   -0.03
     40 y          8.792855      8.849173     0.056318    Cartesian    0.64
     40 z          4.396427      4.437816     0.041388    Cartesian    0.94
     41 x          6.594641      6.603907     0.009266    Cartesian    0.14
     41 y          6.594641      6.603907     0.009266    Cartesian    0.14
     41 z          6.594641      6.598662     0.004020    Cartesian    0.06
     42 x          2.198214      2.198214     0.000000    Cartesian    0.00
     42 y         10.991069     10.950657    -0.040412    Cartesian   -0.37
     42 z         -2.198214     -2.225437    -0.027223    Cartesian    1.24
     43 x          4.396427      4.290956    -0.105472    Cartesian   -2.40
     43 y          4.396427      4.290956    -0.105472    Cartesian   -2.40
     43 z          8.792855      8.816867     0.024012    Cartesian    0.27
     44 x          8.792855      8.859427     0.066572    Cartesian    0.76
     44 y          8.792855      8.859427     0.066572    Cartesian    0.76
     44 z          0.000000      0.000000     0.000000    Cartesian    0.00

  Time to end of optimisation  =        6.0017 seconds

  Timing analysis for GULP :

  Task / Subroutine                                          Time (Seconds)
  Calculation of reciprocal space energy and derivatives          0.0002
  Calculation of reciprocal space energy using symmetry           0.0003
  Calculation of real space energy and derivatives                0.0013
  Calculation of real space energy using symmetry                 0.0037
  Calculation for region 1 energy and derivatives (2-b)           1.1759
  Calculation for region 2a energy                                4.7445
  Calculation for region 2b energy                                0.0001
  Calculation and manipulation of Hessian matrix                  0.0156
  Calculation of matrix inversion                                 0.0006
  Symmetry generation of equivalent positions                     0.0015

  Dump file written as Na3OCl.grs

  Job Finished at 14:33.37  2nd January    2021