  Job Started  at 14:33.31  2nd January    2021

  Number of CPUs =     1

  Total number of configurations input =      1

*  Input for Configuration =   1                                               *

  Formula = ClONa3

  Number of irreducible atoms/shells =       5

  Total number atoms/shells =       7

  Dimensionality = 3               :  Bulk

  Symmetry :

  Crystal family                   :  Cubic
  Crystal class  (Groth - 1921)    :  Cubic Hexakisoctahedral

  Space group (centrosymmetric)    :  P M 3 M

  Patterson group                  :  P m -3 m

  Cartesian lattice vectors (Angstroms) :

        4.504000    0.000000    0.000000
        0.000000    4.504000    0.000000
        0.000000    0.000000    4.504000

  Cell parameters (Angstroms/Degrees):

  a =       4.5040    alpha =  90.0000
  b =       4.5040    beta  =  90.0000
  c =       4.5040    gamma =  90.0000

  Initial cell volume =          91.368216 Angs**3

  Temperature of configuration =   0.00     K

  Pressure of configuration =         0.000 GPa

  Fractional coordinates of asymmetric unit :

   No.  Atomic       x           y          z         Charge      Occupancy
        Label      (Frac)      (Frac)     (Frac)        (e)         (Frac)
      1 Cl    c    0.000000    0.000000    0.000000     1.48500    1.000000
      2 O     c    0.500000    0.500000    0.500000     0.18300    1.000000
      3 Na    c    0.500000    0.500000    0.000000     1.00000    1.000000
      4 Cl    s    0.000000    0.000000    0.000000    -2.48500    1.000000
      5 O     s    0.500000    0.500000    0.500000    -2.18300    1.000000

  Constraints :

  Constraint no.      Unconstrained     Constrained    Coefficient    Offset
                         Variable         Variable
           1              Strain 1        Strain 2       1.00000      0.0000
           2              Strain 1        Strain 3       1.00000      0.0000

*  General input information                                                   *

  Species output for all configurations :

  Species    Type    Atomic    Atomic    Charge       Radii (Angs)     Library
                     Number     Mass       (e)     Cova   Ionic  VDW   Symbol
    Na       Core       11      22.99   1.000000   0.970  0.000  2.300
    O        Core        8      16.00   0.183000   0.730  0.000  1.360
    O        Shell       8       0.00  -2.183000   0.730  0.000  1.360
    Cl       Core       17      35.45   1.485000   0.990  0.000  1.650
    Cl       Shell      17       0.00  -2.485000   0.990  0.000  1.650
    Mg       Core       12      24.31   0.415000   1.100  0.000  0.000
    Mg       Shell      12       0.00   1.585000   1.100  0.000  0.000
    Ca       Core       20      40.08  -1.135000   0.990  0.000  0.000
    Ca       Shell      20       0.00   3.135000   0.990  0.000  0.000
    Sr       Core       38      87.62  -1.251000   1.120  0.000  0.000
    Sr       Shell      38       0.00   3.251000   1.120  0.000  0.000
    Ba       Core       56     137.33  -7.203000   1.340  0.000  0.000
    Ba       Shell      56       0.00   9.203000   1.340  0.000  0.000

  Lattice summation method               =    Ewald          (3-D)
                                         =    Parry          (2-D)
                                         =    Saunders et al (1-D)
  Accuracy factor for lattice sums       =   12.000

  Analytic derivatives to be used

  Time limit = Infinity

  Maximum range for interatomic potentials =    100000.000000 Angstroms

  General interatomic potentials :

Atom  Types   Potential      Parameter       Value         Units   Cutoffs(Ang)
  1     2                                                            Min /  Max
O    c O    s Spring (c-s)  Spring k 2       593.71600    eV*Ang^-2 0.000  0.800
                            Spring k 4       0.0000000    eV*Ang^-4
Cl   c Cl   s Spring (c-s)  Spring k 2       29.380000    eV*Ang^-2 0.000  0.800
                            Spring k 4       0.0000000    eV*Ang^-4
Mg   c Mg   s Spring (c-s)  Spring k 2       361.60000    eV*Ang^-2 0.000  0.800
                            Spring k 4       0.0000000    eV*Ang^-4
Ca   c Ca   s Spring (c-s)  Spring k 2       110.20000    eV*Ang^-2 0.000  0.800
                            Spring k 4       0.0000000    eV*Ang^-4
Sr   c Sr   s Spring (c-s)  Spring k 2       71.700000    eV*Ang^-2 0.000  0.800
                            Spring k 4       0.0000000    eV*Ang^-4
Ba   c Ba   s Spring (c-s)  Spring k 2       495.20000    eV*Ang^-2 0.000  0.800
                            Spring k 4       0.0000000    eV*Ang^-4
Na   c Na   c Buckingham    Buckingham A     1788.1900    eV        0.000 12.000
                            Buckingham rho  0.15900000    Ang
                            Buckingham C     0.0000000    eV*Ang^6
Na   c O    s Buckingham    Buckingham A     1042.9600    eV        0.000 12.000
                            Buckingham rho  0.31000000    Ang
                            Buckingham C     0.0000000    eV*Ang^6
Na   c Cl   s Buckingham    Buckingham A     1591.3800    eV        0.000 12.000
                            Buckingham rho  0.28800000    Ang
                            Buckingham C     0.0000000    eV*Ang^6
O    s O    s Buckingham    Buckingham A     22764.300    eV        0.000 12.000
                            Buckingham rho  0.14900000    Ang
                            Buckingham C     13.190000    eV*Ang^6
O    s Cl   s Buckingham    Buckingham A     8286.9100    eV        0.000 12.000
                            Buckingham rho  0.25900000    Ang
                            Buckingham C     62.200000    eV*Ang^6
Cl   s Cl   s Buckingham    Buckingham A     1227.2000    eV        0.000 12.000
                            Buckingham rho  0.32100000    Ang
                            Buckingham C     14.530000    eV*Ang^6
O    s Mg   s Buckingham    Buckingham A     1428.5000    eV        0.000 12.000
                            Buckingham rho  0.29450000    Ang
                            Buckingham C     0.0000000    eV*Ang^6
Mg   s Cl   s Buckingham    Buckingham A     4914.5400    eV        0.000 12.000
                            Buckingham rho  0.25700000    Ang
                            Buckingham C     0.0000000    eV*Ang^6
O    s Ca   s Buckingham    Buckingham A     1090.4000    eV        0.000 12.000
                            Buckingham rho  0.34370000    Ang
                            Buckingham C     0.0000000    eV*Ang^6
Cl   s Ca   s Buckingham    Buckingham A     2302.0000    eV        0.000 12.000
                            Buckingham rho  0.34020000    Ang
                            Buckingham C     0.0000000    eV*Ang^6
O    s Sr   s Buckingham    Buckingham A     959.10000    eV        0.000 12.000
                            Buckingham rho  0.37210000    Ang
                            Buckingham C     0.0000000    eV*Ang^6
Cl   s Sr   s Buckingham    Buckingham A     2191.0900    eV        0.000 12.000
                            Buckingham rho  0.34570000    Ang
                            Buckingham C     0.0000000    eV*Ang^6
O    s Ba   s Buckingham    Buckingham A     905.70000    eV        0.000 12.000
                            Buckingham rho  0.39760000    Ang
                            Buckingham C     0.0000000    eV*Ang^6
Cl   s Ba   s Buckingham    Buckingham A     2704.5500    eV        0.000 12.000
                            Buckingham rho  0.35280000    Ang
                            Buckingham C     0.0000000    eV*Ang^6

*  Output for configuration   1                                                *

  Components of energy :

  Interatomic potentials     =           4.53951198 eV
  Monopole - monopole (real) =         -10.03624526 eV
  Monopole - monopole (recip)=         -29.53581274 eV
  Monopole - monopole (total)=         -39.57205800 eV
  Total lattice energy       =         -35.03254602 eV
  Total lattice energy       =           -3380.1052 kJ/(mole unit cells)

  Number of variables =        1

  Maximum number of calculations  =          1000
  Maximum Hessian update interval =            10
  Maximum step size               =   1.000000000
  Maximum parameter tolerance     =   0.000010000
  Maximum function  tolerance     =   0.000010000
  Maximum gradient  tolerance     =   0.001000000
  Maximum gradient  component     =   0.010000000

  Symmetry constrained optimisation

  Symmetry used for second derivatives

  Cell parameters to be optimised using strains

  Newton-Raphson optimiser to be used

  BFGS hessian update to be used

  Lower half triangular hessian to be used

  Start of bulk optimisation :

  ** Hessian calculated **

  **** Optimisation achieved ****

  Final energy =     -35.09524226 eV
  Final Gnorm  =       0.00000020

  Components of energy :

  Interatomic potentials     =           5.44507162 eV
  Monopole - monopole (real) =         -10.28181382 eV
  Monopole - monopole (recip)=         -30.25850005 eV
  Monopole - monopole (total)=         -40.54031388 eV
  Total lattice energy       =         -35.09524226 eV
  Total lattice energy       =           -3386.1544 kJ/(mole unit cells)

  Final asymmetric unit coordinates :

   No.  Atomic        x           y           z         Radius
        Label       (Frac)      (Frac)      (Frac)       (Angs)
     1  Cl    c     0.000000    0.000000    0.000000    0.000000
     2  O     c     0.500000    0.500000    0.500000    0.000000
     3  Na    c     0.500000    0.500000    0.000000    0.000000
     4  Cl    s     0.000000    0.000000    0.000000    0.000000
     5  O     s     0.500000    0.500000    0.500000    0.000000

  Final Cartesian lattice vectors (Angstroms) :

        4.396427    0.000000    0.000000
        0.000000    4.396427    0.000000
        0.000000    0.000000    4.396427

  Final cell parameters and derivatives :

       a            4.396427 Angstrom     dE/de1(xx)     0.000000 eV/strain
       b            4.396427 Angstrom     dE/de2(yy)     0.000000 eV/strain
       c            4.396427 Angstrom     dE/de3(zz)     0.000000 eV/strain
       alpha       90.000000 Degrees      dE/de4(yz)     0.000000 eV/strain
       beta        90.000000 Degrees      dE/de5(xz)     0.000000 eV/strain
       gamma       90.000000 Degrees      dE/de6(xy)     0.000000 eV/strain

  Primitive cell volume =            84.976675 Angs**3

  Density of cell =      2.353179 g/cm**3

  Non-primitive cell volume =            84.976675 Angs**3

  Final internal derivatives :

   No.  Atomic          a             b             c           Radius
        Label          (eV)          (eV)          (eV)        (eV/Angs)
      1 Cl    c       0.000000      0.000000      0.000000      0.000000
      2 O     c       0.000000      0.000000      0.000000      0.000000
      3 Na    c       0.000000      0.000000      0.000000      0.000000
      4 Cl    s       0.000000      0.000000      0.000000      0.000000
      5 O     s       0.000000      0.000000      0.000000      0.000000
  Maximum abs         0.000000      0.000000      0.000000      0.000000

  Comparison of initial and final structures :

[...]
    13  Cl    c      -0.003699      0.000839      0.000000      0.000000
    14  Na    c       0.001151      0.000000      0.001068      0.000000
    15  Na    c      -0.000976      0.000000     -0.000768      0.000000
    16  Na    c       0.000106      0.000000      0.000094      0.000000
    17  O     c       0.000000      0.000523      0.000033      0.000000
    18  Cl    c      -0.001672      0.002736     -0.002115      0.000000
    19  Na    c       0.000720      0.001099     -0.001809      0.000000
    20  Na    c      -0.000358      0.001240     -0.000769      0.000000
    21  Na    c       0.000000      0.000000      0.000354      0.000000
    22  Na    c       0.000000     -0.001075      0.000000      0.000000
    23  O     c       0.000265      0.000000      0.000103      0.000000
    24  O     c       0.000000      0.000113     -0.000138      0.000000
    25  Cl    c      -0.001504      0.000000     -0.001614      0.000000
    26  Cl    c      -0.002140      0.000000      0.000000      0.000000
    27  Na    c       0.000273     -0.003853      0.000952      0.000000
    28  Na    c       0.000356      0.000000     -0.000957      0.000000
    29  Na    c       0.000000     -0.000452      0.000616      0.000000
    30  Na    c       0.000891     -0.000820      0.000000      0.000000
    31  Na    c       0.000000     -0.001085      0.000893      0.000000
    32  O     c       0.000889     -0.000187     -0.000503      0.000000
    33  Na    c       0.000509     -0.000261     -0.001102      0.000000
    34  Cl    c      -0.001290      0.000000     -0.000285      0.000000
    35  Na    c      -0.000297      0.000000     -0.000497      0.000000
    36  Na    c      -0.001118     -0.001352      0.001583      0.000000
    37  O     c       0.000000     -0.000105      0.000063      0.000000
    38  O     c       0.000000      0.000000      0.000023      0.000000
    39  O     s       0.000000      0.000000      0.000464      0.000000
    40  Cl    s       0.002149      0.000000      0.000000      0.000000
    41  O     s       0.000000     -0.001366      0.001040      0.000000
    42  Cl    s       0.002759      0.000000      0.001988      0.000000
    43  O     s      -0.001708      0.000000      0.001074      0.000000
    44  O     s       0.000000      0.000000     -0.000029      0.000000
    45  Cl    s       0.003074      0.000213      0.000000      0.000000
    46  O     s       0.000000     -0.000552      0.001441      0.000000
    47  Cl    s       0.001585     -0.001844     -0.000483      0.000000
    48  O     s       0.000689      0.000000      0.000086      0.000000
    49  O     s       0.000000      0.000094      0.000140      0.000000
    50  Cl    s      -0.000697      0.000000     -0.000353      0.000000
    51  Cl    s       0.001690      0.000000      0.000000      0.000000
    52  O     s      -0.000071      0.002184     -0.002070      0.000000
    53  Cl    s       0.001321      0.000000      0.000099      0.000000
    54  O     s       0.000000      0.000821      0.000141      0.000000
    55  O     s       0.000000      0.000000     -0.000210      0.000000

  Comparison of initial and final region 1 :

  Parameter   Initial value   Final value   Difference    Units      Percent
      1 x          2.198214      2.198214     0.000000    Cartesian    0.00
      1 y          2.198214      2.198214     0.000000    Cartesian    0.00
      1 z         -2.198214     -2.236296    -0.038082    Cartesian    1.73
      2 x          4.396427      4.476656     0.080228    Cartesian    1.82
      2 y          4.396427      4.476656     0.080228    Cartesian    1.82
      2 z          0.000000      0.000000     0.000000    Cartesian    0.00
      3 x          4.396427      4.322924    -0.073504    Cartesian   -1.67
      3 y          2.198214      2.198214     0.000000    Cartesian    0.00
      3 z         -2.198214     -1.656670     0.541543    Cartesian  -24.64
      4 x          2.198214      2.198214     0.000000    Cartesian    0.00
      4 y          6.594641      7.122235     0.527594    Cartesian    8.00
      4 z          0.000000      0.000000     0.000000    Cartesian    0.00
      5 x          2.198214      2.198214     0.000000    Cartesian    0.00
      5 y          2.198214      2.198214     0.000000    Cartesian    0.00
      5 z          4.396427      4.403184     0.006757    Cartesian    0.15
      6 x          2.198214      2.198214     0.000000    Cartesian    0.00
      6 y          6.594641      6.559078    -0.035563    Cartesian   -0.54
      6 z         -2.198214     -2.177737     0.020476    Cartesian   -0.93
      7 x          4.396427      4.387559    -0.008869    Cartesian   -0.20
      7 y          6.594641      6.509432    -0.085209    Cartesian   -1.29
      7 z         -2.198214     -2.217375    -0.019161    Cartesian    0.87
      8 x          4.396427      4.592721     0.196294    Cartesian    4.46
      8 y          4.396427      4.592721     0.196294    Cartesian    4.46
      8 z          4.396427      4.398413     0.001985    Cartesian    0.05
      9 x          6.594641      6.587812    -0.006829    Cartesian   -0.10
      9 y          6.594641      6.587812    -0.006829    Cartesian   -0.10
      9 z          0.000000      0.000000     0.000000    Cartesian    0.00
     10 x          2.198214      2.198214     0.000000    Cartesian    0.00
     10 y          6.594641      6.000896    -0.593745    Cartesian   -9.00
     10 z          4.396427      4.351679    -0.044748    Cartesian   -1.02
     11 x          6.594641      6.600409     0.005768    Cartesian    0.09
     11 y          6.594641      6.600409     0.005768    Cartesian    0.09
     11 z         -2.198214     -2.183869     0.014345    Cartesian   -0.65
     12 x          2.198214      2.198214     0.000000    Cartesian    0.00
     12 y          2.198214      2.198214     0.000000    Cartesian    0.00
     12 z          6.594641      6.646386     0.051744    Cartesian    0.78
     13 x          4.396427      4.432202     0.035774    Cartesian    0.81
     13 y          8.792855      8.900389     0.107534    Cartesian    1.22
     13 z          0.000000      0.000000     0.000000    Cartesian    0.00
     14 x          4.396427      4.389315    -0.007112    Cartesian   -0.16
     14 y          2.198214      2.198214     0.000000    Cartesian    0.00
     14 z          6.594641      6.969819     0.375178    Cartesian    5.69
     15 x          8.792855      8.744765    -0.048090    Cartesian   -0.55
     15 y          2.198214      2.198214     0.000000    Cartesian    0.00
     15 z         -2.198214     -2.692241    -0.494027    Cartesian   22.47
     16 x          6.594641      6.596869     0.002228    Cartesian    0.03
     16 y          6.594641      6.596869     0.002228    Cartesian    0.03
     16 z          4.396427      4.382852    -0.013575    Cartesian   -0.31
     17 x          2.198214      2.198214     0.000000    Cartesian    0.00
     17 y          6.594641      6.554757    -0.039884    Cartesian   -0.60
     17 z          6.594641      6.535832    -0.058809    Cartesian   -0.89
     18 x          4.396427      4.425412     0.028984    Cartesian    0.66
     18 y          8.792855      8.846031     0.053176    Cartesian    0.60
     18 z          4.396427      4.448972     0.052545    Cartesian    1.20
     19 x          4.396427      4.395043    -0.001384    Cartesian   -0.03
     19 y          6.594641      6.611258     0.016617    Cartesian    0.25
     19 z          6.594641      6.426390    -0.168251    Cartesian   -2.55
     20 x          8.792855      8.793631     0.000776    Cartesian    0.01
     20 y          6.594641      6.586759    -0.007882    Cartesian   -0.12
     20 z         -2.198214     -2.227042    -0.028828    Cartesian    1.31
     21 x          2.198214      2.198214     0.000000    Cartesian    0.00
     21 y          2.198214      2.198214     0.000000    Cartesian    0.00
     21 z          8.792855      8.882722     0.089867    Cartesian    1.02
     22 x          2.198214      2.198214     0.000000    Cartesian    0.00
     22 y         10.991069     10.669433    -0.321636    Cartesian   -2.93
     22 z          0.000000      0.000000     0.000000    Cartesian    0.00
     23 x          6.594641      6.599743     0.005102    Cartesian    0.08
     23 y          6.594641      6.599743     0.005102    Cartesian    0.08
     23 z          6.594641      6.587288    -0.007353    Cartesian   -0.11
     24 x          2.198214      2.198214     0.000000    Cartesian    0.00
     24 y         10.991069     10.950322    -0.040746    Cartesian   -0.37
     24 z         -2.198214     -2.217420    -0.019206    Cartesian    0.87
     25 x          4.396427      4.289360    -0.107068    Cartesian   -2.44
     25 y          4.396427      4.289360    -0.107068    Cartesian   -2.44
     25 z          8.792855      8.834029     0.041174    Cartesian    0.47
     26 x          8.792855      8.859966     0.067111    Cartesian    0.76
     26 y          8.792855      8.859966     0.067111    Cartesian    0.76
     26 z          0.000000      0.000000     0.000000    Cartesian    0.00
     27 x          4.396427      4.390146    -0.006281    Cartesian   -0.14
     27 y         10.991069     10.955267    -0.035802    Cartesian   -0.33
     27 z         -2.198214     -2.030315     0.167899    Cartesian   -7.64
     28 x          8.792855      8.776895    -0.015960    Cartesian   -0.18
     28 y          2.198214      2.198214     0.000000    Cartesian    0.00
     28 z          6.594641      6.316197    -0.278444    Cartesian   -4.22
     29 x          2.198214      2.198214     0.000000    Cartesian    0.00
     29 y          6.594641      6.792641     0.197999    Cartesian    3.00
     29 z          8.792855      8.751384    -0.041471    Cartesian   -0.47
     30 x          6.594641      6.690437     0.095796    Cartesian    1.45
     30 y         10.991069     10.955715    -0.035354    Cartesian   -0.32
     30 z          0.000000      0.000000     0.000000    Cartesian    0.00
     31 x          2.198214      2.198214     0.000000    Cartesian    0.00
     31 y         10.991069     11.194891     0.203822    Cartesian    1.85
     31 z          4.396427      4.385300    -0.011128    Cartesian   -0.25
     32 x          6.594641      6.596712     0.002071    Cartesian    0.03
     32 y         10.991069     10.992886     0.001817    Cartesian    0.02
     32 z         -2.198214     -2.188444     0.009770    Cartesian   -0.44
     33 x          8.792855      8.792632    -0.000223    Cartesian   -0.00
     33 y          6.594641      6.585799    -0.008842    Cartesian   -0.13
     33 z          6.594641      6.587601    -0.007040    Cartesian   -0.11
     34 x          8.792855      8.780029    -0.012826    Cartesian   -0.15
     34 y          8.792855      8.780029    -0.012826    Cartesian   -0.15
     34 z          4.396427      4.378415    -0.018012    Cartesian   -0.41
     35 x          6.594641      6.586890    -0.007751    Cartesian   -0.12
     35 y          6.594641      6.586890    -0.007751    Cartesian   -0.12
     35 z          8.792855      8.771933    -0.020922    Cartesian   -0.24
     36 x          6.594641      6.510151    -0.084490    Cartesian   -1.28
     36 y         10.991069     10.976761    -0.014308    Cartesian   -0.13
     36 z          4.396427      4.386015    -0.010412    Cartesian   -0.24
     37 x          2.198214      2.198214     0.000000    Cartesian    0.00
     37 y         10.991069     11.008686     0.017617    Cartesian    0.16
     37 z          6.594641      6.575959    -0.018682    Cartesian   -0.28
     38 x          2.198214      2.198214     0.000000    Cartesian    0.00
     38 y          2.198214      2.198214     0.000000    Cartesian    0.00
     38 z         10.991069     11.044888     0.053820    Cartesian    0.49
     39 x          2.198214      2.198214     0.000000    Cartesian    0.00
     39 y          2.198214      2.198214     0.000000    Cartesian    0.00
     39 z         -2.198214     -2.236325    -0.038112    Cartesian    1.73
     40 x          4.396427      4.465638     0.069211    Cartesian    1.57
     40 y          4.396427      4.465638     0.069211    Cartesian    1.57
     40 z          0.000000      0.000000     0.000000    Cartesian    0.00
     41 x          2.198214      2.198214     0.000000    Cartesian    0.00
     41 y          6.594641      6.559111    -0.035530    Cartesian   -0.54
     41 z         -2.198214     -2.177772     0.020441    Cartesian   -0.93
     42 x          4.396427      4.611298     0.214871    Cartesian    4.89
     42 y          4.396427      4.611298     0.214871    Cartesian    4.89
     42 z          4.396427      4.400558     0.004130    Cartesian    0.09
     43 x          6.594641      6.600415     0.005774    Cartesian    0.09
     43 y          6.594641      6.600415     0.005774    Cartesian    0.09
     43 z         -2.198214     -2.183877     0.014337    Cartesian   -0.65
     44 x          2.198214      2.198214     0.000000    Cartesian    0.00
     44 y          2.198214      2.198214     0.000000    Cartesian    0.00
     44 z          6.594641      6.646631     0.051990    Cartesian    0.79
     45 x          4.396427      4.423951     0.027523    Cartesian    0.63
     45 y          8.792855      8.914887     0.122032    Cartesian    1.39
     45 z          0.000000      0.000000     0.000000    Cartesian    0.00
     46 x          2.198214      2.198214     0.000000    Cartesian    0.00
     46 y          6.594641      6.554706    -0.039935    Cartesian   -0.61
     46 z          6.594641      6.535872    -0.058769    Cartesian   -0.89
     47 x          4.396427      4.420709     0.024281    Cartesian    0.55
     47 y          8.792855      8.848059     0.055204    Cartesian    0.63
     47 z          4.396427      4.453716     0.057288    Cartesian    1.30
     48 x          6.594641      6.599764     0.005123    Cartesian    0.08
     48 y          6.594641      6.599764     0.005123    Cartesian    0.08
     48 z          6.594641      6.587256    -0.007385    Cartesian   -0.11
     49 x          2.198214      2.198214     0.000000    Cartesian    0.00
     49 y         10.991069     10.950355    -0.040714    Cartesian   -0.37
     49 z         -2.198214     -2.217491    -0.019277    Cartesian    0.88
     50 x          4.396427      4.272462    -0.123966    Cartesian   -2.82
     50 y          4.396427      4.272462    -0.123966    Cartesian   -2.82
     50 z          8.792855      8.826581     0.033726    Cartesian    0.38
     51 x          8.792855      8.865674     0.072819    Cartesian    0.83
     51 y          8.792855      8.865674     0.072819    Cartesian    0.83
     51 z          0.000000      0.000000     0.000000    Cartesian    0.00
     52 x          6.594641      6.596735     0.002094    Cartesian    0.03
     52 y         10.991069     10.992872     0.001804    Cartesian    0.02
     52 z         -2.198214     -2.188413     0.009800    Cartesian   -0.45
     53 x          8.792855      8.778632    -0.014223    Cartesian   -0.16
     53 y          8.792855      8.778632    -0.014223    Cartesian   -0.16
     53 z          4.396427      4.376622    -0.019806    Cartesian   -0.45
     54 x          2.198214      2.198214     0.000000    Cartesian    0.00
     54 y         10.991069     11.008803     0.017734    Cartesian    0.16
     54 z          6.594641      6.575904    -0.018737    Cartesian   -0.28
     55 x          2.198214      2.198214     0.000000    Cartesian    0.00
     55 y          2.198214      2.198214     0.000000    Cartesian    0.00
     55 z         10.991069     11.044875     0.053806    Cartesian    0.49

  Time to end of optimisation  =        9.2481 seconds

  Timing analysis for GULP :

  Task / Subroutine                                          Time (Seconds)
  Calculation of reciprocal space energy and derivatives          0.0004
  Calculation of reciprocal space energy using symmetry           0.0011
  Calculation of real space energy and derivatives                0.0025
  Calculation of real space energy using symmetry                 0.0116
  Calculation for region 1 energy and derivatives (2-b)           2.2233
  Calculation for region 2a energy                                6.8729
  Calculation for region 2b energy                                0.0001
  Calculation and manipulation of Hessian matrix                  0.0485
  Calculation of matrix inversion                                 0.0018
  Symmetry generation of equivalent positions                     0.0066

  Dump file written as Na3OCl.grs

  Job Finished at 14:33.40  2nd January    2021