  Job Started  at 14:11.56 30th December   2020

  Number of CPUs =     1

  Total number of configurations input =      1

*  Input for Configuration =   1                                               *

  Formula = ClONa3

  Number of irreducible atoms/shells =       5

  Total number atoms/shells =       7

  Dimensionality = 3               :  Bulk

  Symmetry :

  Crystal family                   :  Cubic
  Crystal class  (Groth - 1921)    :  Cubic Hexakisoctahedral

  Space group (centrosymmetric)    :  P M 3 M

  Patterson group                  :  P m -3 m

  Cartesian lattice vectors (Angstroms) :

        4.504000    0.000000    0.000000
        0.000000    4.504000    0.000000
        0.000000    0.000000    4.504000

  Cell parameters (Angstroms/Degrees):

  a =       4.5040    alpha =  90.0000
  b =       4.5040    beta  =  90.0000
  c =       4.5040    gamma =  90.0000

  Initial cell volume =          91.368216 Angs**3

  Temperature of configuration =   0.00     K

  Pressure of configuration =         0.000 GPa

  Fractional coordinates of asymmetric unit :

   No.  Atomic       x           y          z         Charge      Occupancy
        Label      (Frac)      (Frac)     (Frac)        (e)         (Frac)
      1 Cl    c    0.000000    0.000000    0.000000     1.48500    1.000000
      2 O     c    0.500000    0.500000    0.500000     0.18300    1.000000
      3 Na    c    0.500000    0.500000    0.000000     1.00000    1.000000
      4 Cl    s    0.000000    0.000000    0.000000    -2.48500    1.000000
      5 O     s    0.500000    0.500000    0.500000    -2.18300    1.000000

  Constraints :

  Constraint no.      Unconstrained     Constrained    Coefficient    Offset
                         Variable         Variable
           1              Strain 1        Strain 2       1.00000      0.0000
           2              Strain 1        Strain 3       1.00000      0.0000

*  General input information                                                   *

  Species output for all configurations :

  Species    Type    Atomic    Atomic    Charge       Radii (Angs)     Library
                     Number     Mass       (e)     Cova   Ionic  VDW   Symbol
    Na       Core       11      22.99   1.000000   0.970  0.000  2.300
    O        Core        8      16.00   0.183000   0.730  0.000  1.360
    O        Shell       8       0.00  -2.183000   0.730  0.000  1.360
    Cl       Core       17      35.45   1.485000   0.990  0.000  1.650
    Cl       Shell      17       0.00  -2.485000   0.990  0.000  1.650
    Mg       Core       12      24.31   0.415000   1.100  0.000  0.000
    Mg       Shell      12       0.00   1.585000   1.100  0.000  0.000
    Ca       Core       20      40.08  -1.135000   0.990  0.000  0.000
    Ca       Shell      20       0.00   3.135000   0.990  0.000  0.000
    Sr       Core       38      87.62  -1.251000   1.120  0.000  0.000
    Sr       Shell      38       0.00   3.251000   1.120  0.000  0.000
    Ba       Core       56     137.33  -7.203000   1.340  0.000  0.000
    Ba       Shell      56       0.00   9.203000   1.340  0.000  0.000

  Lattice summation method               =    Ewald          (3-D)
                                         =    Parry          (2-D)
                                         =    Saunders et al (1-D)
  Accuracy factor for lattice sums       =   12.000

  Analytic derivatives to be used

  Time limit = Infinity

  Maximum range for interatomic potentials =    100000.000000 Angstroms

  General interatomic potentials :

Atom  Types   Potential      Parameter       Value         Units   Cutoffs(Ang)
  1     2                                                            Min /  Max
O    c O    s Spring (c-s)  Spring k 2       593.71600    eV*Ang^-2 0.000  0.800
                            Spring k 4       0.0000000    eV*Ang^-4
Cl   c Cl   s Spring (c-s)  Spring k 2       29.380000    eV*Ang^-2 0.000  0.800
                            Spring k 4       0.0000000    eV*Ang^-4
Mg   c Mg   s Spring (c-s)  Spring k 2       361.60000    eV*Ang^-2 0.000  0.800
                            Spring k 4       0.0000000    eV*Ang^-4
Ca   c Ca   s Spring (c-s)  Spring k 2       110.20000    eV*Ang^-2 0.000  0.800
                            Spring k 4       0.0000000    eV*Ang^-4
Sr   c Sr   s Spring (c-s)  Spring k 2       71.700000    eV*Ang^-2 0.000  0.800
                            Spring k 4       0.0000000    eV*Ang^-4
Ba   c Ba   s Spring (c-s)  Spring k 2       495.20000    eV*Ang^-2 0.000  0.800
                            Spring k 4       0.0000000    eV*Ang^-4
Na   c Na   c Buckingham    Buckingham A     1788.1900    eV        0.000 12.000
                            Buckingham rho  0.15900000    Ang
                            Buckingham C     0.0000000    eV*Ang^6
Na   c O    s Buckingham    Buckingham A     1042.9600    eV        0.000 12.000
                            Buckingham rho  0.31000000    Ang
                            Buckingham C     0.0000000    eV*Ang^6
Na   c Cl   s Buckingham    Buckingham A     1591.3800    eV        0.000 12.000
                            Buckingham rho  0.28800000    Ang
                            Buckingham C     0.0000000    eV*Ang^6
O    s O    s Buckingham    Buckingham A     22764.300    eV        0.000 12.000
                            Buckingham rho  0.14900000    Ang
                            Buckingham C     13.190000    eV*Ang^6
O    s Cl   s Buckingham    Buckingham A     8286.9100    eV        0.000 12.000
                            Buckingham rho  0.25900000    Ang
                            Buckingham C     62.200000    eV*Ang^6
Cl   s Cl   s Buckingham    Buckingham A     1227.2000    eV        0.000 12.000
                            Buckingham rho  0.32100000    Ang
                            Buckingham C     14.530000    eV*Ang^6
O    s Mg   s Buckingham    Buckingham A     1428.5000    eV        0.000 12.000
                            Buckingham rho  0.29450000    Ang
                            Buckingham C     0.0000000    eV*Ang^6
Mg   s Cl   s Buckingham    Buckingham A     4914.5400    eV        0.000 12.000
                            Buckingham rho  0.25700000    Ang
                            Buckingham C     0.0000000    eV*Ang^6
O    s Ca   s Buckingham    Buckingham A     1090.4000    eV        0.000 12.000
                            Buckingham rho  0.34370000    Ang
                            Buckingham C     0.0000000    eV*Ang^6
Cl   s Ca   s Buckingham    Buckingham A     2302.0000    eV        0.000 12.000
                            Buckingham rho  0.34020000    Ang
                            Buckingham C     0.0000000    eV*Ang^6
O    s Sr   s Buckingham    Buckingham A     959.10000    eV        0.000 12.000
                            Buckingham rho  0.37210000    Ang
                            Buckingham C     0.0000000    eV*Ang^6
Cl   s Sr   s Buckingham    Buckingham A     2191.0900    eV        0.000 12.000
                            Buckingham rho  0.34570000    Ang
                            Buckingham C     0.0000000    eV*Ang^6
O    s Ba   s Buckingham    Buckingham A     905.70000    eV        0.000 12.000
                            Buckingham rho  0.39760000    Ang
                            Buckingham C     0.0000000    eV*Ang^6
Cl   s Ba   s Buckingham    Buckingham A     2704.5500    eV        0.000 12.000
                            Buckingham rho  0.35280000    Ang
                            Buckingham C     0.0000000    eV*Ang^6

*  Output for configuration   1                                                *

  Components of energy :

  Interatomic potentials     =           4.53951198 eV
  Monopole - monopole (real) =         -10.03624526 eV
  Monopole - monopole (recip)=         -29.53581274 eV
  Monopole - monopole (total)=         -39.57205800 eV
  Total lattice energy       =         -35.03254602 eV
  Total lattice energy       =           -3380.1052 kJ/(mole unit cells)

  Number of variables =        1

  Maximum number of calculations  =          1000
  Maximum Hessian update interval =            10
  Maximum step size               =   1.000000000
  Maximum parameter tolerance     =   0.000010000
  Maximum function  tolerance     =   0.000010000
  Maximum gradient  tolerance     =   0.001000000
  Maximum gradient  component     =   0.010000000

  Symmetry constrained optimisation

  Symmetry used for second derivatives

  Cell parameters to be optimised using strains

  Newton-Raphson optimiser to be used

  BFGS hessian update to be used

  Lower half triangular hessian to be used

  Start of bulk optimisation :

  ** Hessian calculated **

  **** Optimisation achieved ****

  Final energy =     -35.09524226 eV
  Final Gnorm  =       0.00000020

  Components of energy :

  Interatomic potentials     =           5.44507162 eV
  Monopole - monopole (real) =         -10.28181382 eV
  Monopole - monopole (recip)=         -30.25850005 eV
  Monopole - monopole (total)=         -40.54031388 eV
  Total lattice energy       =         -35.09524226 eV
  Total lattice energy       =           -3386.1544 kJ/(mole unit cells)

  Final asymmetric unit coordinates :

   No.  Atomic        x           y           z         Radius
        Label       (Frac)      (Frac)      (Frac)       (Angs)
     1  Cl    c     0.000000    0.000000    0.000000    0.000000
     2  O     c     0.500000    0.500000    0.500000    0.000000
     3  Na    c     0.500000    0.500000    0.000000    0.000000
     4  Cl    s     0.000000    0.000000    0.000000    0.000000
     5  O     s     0.500000    0.500000    0.500000    0.000000

  Final Cartesian lattice vectors (Angstroms) :

        4.396427    0.000000    0.000000
        0.000000    4.396427    0.000000
        0.000000    0.000000    4.396427

  Final cell parameters and derivatives :

       a            4.396427 Angstrom     dE/de1(xx)     0.000000 eV/strain
       b            4.396427 Angstrom     dE/de2(yy)     0.000000 eV/strain
       c            4.396427 Angstrom     dE/de3(zz)     0.000000 eV/strain
       alpha       90.000000 Degrees      dE/de4(yz)     0.000000 eV/strain
       beta        90.000000 Degrees      dE/de5(xz)     0.000000 eV/strain
       gamma       90.000000 Degrees      dE/de6(xy)     0.000000 eV/strain

  Primitive cell volume =            84.976675 Angs**3

  Density of cell =      2.353179 g/cm**3

  Non-primitive cell volume =            84.976675 Angs**3

  Final internal derivatives :

   No.  Atomic          a             b             c           Radius
        Label          (eV)          (eV)          (eV)        (eV/Angs)
      1 Cl    c       0.000000      0.000000      0.000000      0.000000
      2 O     c       0.000000      0.000000      0.000000      0.000000
      3 Na    c       0.000000      0.000000      0.000000      0.000000
      4 Cl    s       0.000000      0.000000      0.000000      0.000000
      5 O     s       0.000000      0.000000      0.000000      0.000000
  Maximum abs         0.000000      0.000000      0.000000      0.000000

  Comparison of initial and final structures :

[...]
    125 z          0.000000      0.000000     0.000000    Cartesian    0.00
    126 x          6.594641      6.590324    -0.004317    Cartesian   -0.07
    126 y         15.387496     15.338163    -0.049333    Cartesian   -0.32
    126 z         10.991069     10.990788    -0.000281    Cartesian   -0.00
    127 x          2.198214      2.198214     0.000000    Cartesian    0.00
    127 y         10.991069     11.009919     0.018851    Cartesian    0.17
    127 z         15.387496     15.330985    -0.056511    Cartesian   -0.37
    128 x          2.198214      2.198214     0.000000    Cartesian    0.00
    128 y         19.783924     19.732078    -0.051846    Cartesian   -0.26
    128 z         -2.198214     -2.212600    -0.014386    Cartesian    0.65
    129 x          4.396427      4.399831     0.003404    Cartesian    0.08
    129 y         17.585710     17.645359     0.059649    Cartesian    0.34
    129 z          8.792855      8.874586     0.081731    Cartesian    0.93
    130 x          4.396427      4.289449    -0.106979    Cartesian   -2.43
    130 y          4.396427      4.289449    -0.106979    Cartesian   -2.43
    130 z         17.585710     17.643503     0.057793    Cartesian    0.33
    131 x         13.189282     13.157481    -0.031801    Cartesian   -0.24
    131 y         10.991069     10.969211    -0.021858    Cartesian   -0.20
    131 z         10.991069     10.885519    -0.105550    Cartesian   -0.96
    132 x         17.585710     17.569313    -0.016397    Cartesian   -0.09
    132 y         10.991069     10.953623    -0.037446    Cartesian   -0.34
    132 z         -2.198214     -2.535048    -0.336835    Cartesian   15.32
    133 x         13.189282     13.199428     0.010146    Cartesian    0.08
    133 y         13.189282     13.199428     0.010146    Cartesian    0.08
    133 z          8.792855      8.793547     0.000692    Cartesian    0.01
    134 x          4.396427      4.387319    -0.009109    Cartesian   -0.21
    134 y         10.991069     11.064980     0.073911    Cartesian    0.67
    134 z         15.387496     15.357221    -0.030275    Cartesian   -0.20
    135 x          4.396427      4.395852    -0.000576    Cartesian   -0.01
    135 y         19.783924     19.748225    -0.035699    Cartesian   -0.18
    135 z         -2.198214     -2.168750     0.029463    Cartesian   -1.34
    136 x          2.198214      2.198214     0.000000    Cartesian    0.00
    136 y          2.198214      2.198214     0.000000    Cartesian    0.00
    136 z         -2.198214     -2.284299    -0.086085    Cartesian    3.92
    137 x          4.396427      4.399384     0.002957    Cartesian    0.07
    137 y          4.396427      4.399384     0.002957    Cartesian    0.07
    137 z          0.000000      0.000000     0.000000    Cartesian    0.00
    138 x          2.198214      2.198214     0.000000    Cartesian    0.00
    138 y          6.594641      6.555540    -0.039102    Cartesian   -0.59
    138 z         -2.198214     -2.220622    -0.022408    Cartesian    1.02
    139 x          4.396427      4.572430     0.176002    Cartesian    4.00
    139 y          4.396427      4.572430     0.176002    Cartesian    4.00
    139 z          4.396427      4.465770     0.069342    Cartesian    1.58
    140 x          6.594641      6.623712     0.029071    Cartesian    0.44
    140 y          6.594641      6.623712     0.029071    Cartesian    0.44
    140 z         -2.198214     -2.155561     0.042653    Cartesian   -1.94
    141 x          2.198214      2.198214     0.000000    Cartesian    0.00
    141 y          2.198214      2.198214     0.000000    Cartesian    0.00
    141 z          6.594641      6.641342     0.046700    Cartesian    0.71
    142 x          4.396427      4.426499     0.030072    Cartesian    0.68
    142 y          8.792855      8.905226     0.112371    Cartesian    1.28
    142 z          0.000000      0.000000     0.000000    Cartesian    0.00
    143 x          2.198214      2.198214     0.000000    Cartesian    0.00
    143 y          6.594641      6.599372     0.004731    Cartesian    0.07
    143 z          6.594641      6.532532    -0.062109    Cartesian   -0.94
    144 x          4.396427      4.368860    -0.027568    Cartesian   -0.63
    144 y          8.792855      8.678490    -0.114365    Cartesian   -1.30
    144 z          4.396427      4.371445    -0.024982    Cartesian   -0.57
    145 x          6.594641      6.621057     0.026416    Cartesian    0.40
    145 y          6.594641      6.621057     0.026416    Cartesian    0.40
    145 z          6.594641      6.639512     0.044871    Cartesian    0.68
    146 x          2.198214      2.198214     0.000000    Cartesian    0.00
    146 y         10.991069     10.967202    -0.023867    Cartesian   -0.22
    146 z         -2.198214     -2.162303     0.035910    Cartesian   -1.63
    147 x          4.396427      4.225850    -0.170577    Cartesian   -3.88
    147 y          4.396427      4.225850    -0.170577    Cartesian   -3.88
    147 z          8.792855      8.828526     0.035671    Cartesian    0.41
    148 x          8.792855      8.725078    -0.067777    Cartesian   -0.77
    148 y          8.792855      8.725078    -0.067777    Cartesian   -0.77
    148 z          0.000000      0.000000     0.000000    Cartesian    0.00
    149 x          6.594641      6.609850     0.015209    Cartesian    0.23
    149 y         10.991069     11.002397     0.011329    Cartesian    0.10
    149 z         -2.198214     -2.218642    -0.020429    Cartesian    0.93
    150 x          8.792855      8.855326     0.062471    Cartesian    0.71
    150 y          8.792855      8.855326     0.062471    Cartesian    0.71
    150 z          4.396427      4.365830    -0.030597    Cartesian   -0.70
    151 x          2.198214      2.198214     0.000000    Cartesian    0.00
    151 y         10.991069     10.968705    -0.022364    Cartesian   -0.20
    151 z          6.594641      6.597713     0.003071    Cartesian    0.05
    152 x          2.198214      2.198214     0.000000    Cartesian    0.00
    152 y          2.198214      2.198214     0.000000    Cartesian    0.00
    152 z         10.991069     10.992114     0.001045    Cartesian    0.01
    153 x          4.396427      4.425505     0.029077    Cartesian    0.66
    153 y          8.792855      8.863560     0.070705    Cartesian    0.80
    153 z          8.792855      8.780507    -0.012348    Cartesian   -0.14
    154 x          4.396427      4.403413     0.006986    Cartesian    0.16
    154 y         13.189282     13.129219    -0.060063    Cartesian   -0.46
    154 z          0.000000      0.000000     0.000000    Cartesian    0.00
    155 x          6.594641      6.616839     0.022198    Cartesian    0.34
    155 y         10.991069     10.999398     0.008329    Cartesian    0.08
    155 z          6.594641      6.538303    -0.056339    Cartesian   -0.85
    156 x          2.198214      2.198214     0.000000    Cartesian    0.00
    156 y          6.594641      6.629024     0.034382    Cartesian    0.52
    156 z         10.991069     11.057159     0.066090    Cartesian    0.60
    157 x          4.396427      4.408328     0.011901    Cartesian    0.27
    157 y         13.189282     13.255494     0.066212    Cartesian    0.50
    157 z          4.396427      4.414103     0.017676    Cartesian    0.40
    158 x          6.594641      6.598472     0.003830    Cartesian    0.06
    158 y          6.594641      6.598472     0.003830    Cartesian    0.06
    158 z         10.991069     10.911145    -0.079924    Cartesian   -0.73
    159 x         10.991069     11.005227     0.014158    Cartesian    0.13
    159 y         10.991069     11.005227     0.014158    Cartesian    0.13
    159 z         -2.198214     -2.157693     0.040521    Cartesian   -1.84
    160 x          8.792855      8.756175    -0.036680    Cartesian   -0.42
    160 y          8.792855      8.756175    -0.036680    Cartesian   -0.42
    160 z          8.792855      8.802383     0.009529    Cartesian    0.11
    161 x          8.792855      8.828909     0.036054    Cartesian    0.41
    161 y         13.189282     13.268650     0.079368    Cartesian    0.60
    161 z          0.000000      0.000000     0.000000    Cartesian    0.00
    162 x          2.198214      2.198214     0.000000    Cartesian    0.00
    162 y         15.387496     15.350821    -0.036675    Cartesian   -0.24
    162 z         -2.198214     -2.151662     0.046552    Cartesian   -2.12
    163 x          4.396427      4.482245     0.085818    Cartesian    1.95
    163 y          4.396427      4.482245     0.085818    Cartesian    1.95
    163 z         13.189282     13.186036    -0.003246    Cartesian   -0.02
    164 x          8.792855      8.791880    -0.000974    Cartesian   -0.01
    164 y         13.189282     13.165347    -0.023935    Cartesian   -0.18
    164 z          4.396427      4.375058    -0.021370    Cartesian   -0.49
    165 x          6.594641      6.590372    -0.004270    Cartesian   -0.06
    165 y         15.387496     15.363941    -0.023555    Cartesian   -0.15
    165 z         -2.198214     -2.219130    -0.020917    Cartesian    0.95
    166 x          2.198214      2.198214     0.000000    Cartesian    0.00
    166 y         10.991069     10.951942    -0.039127    Cartesian   -0.36
    166 z         10.991069     10.926962    -0.064106    Cartesian   -0.58
    167 x         10.991069     10.983540    -0.007529    Cartesian   -0.07
    167 y         10.991069     10.983540    -0.007529    Cartesian   -0.07
    167 z          6.594641      6.538911    -0.055730    Cartesian   -0.85
    168 x          4.396427      4.389847    -0.006581    Cartesian   -0.15
    168 y         13.189282     13.130244    -0.059038    Cartesian   -0.45
    168 z          8.792855      8.783924    -0.008931    Cartesian   -0.10
    169 x          2.198214      2.198214     0.000000    Cartesian    0.00
    169 y         15.387496     15.320065    -0.067431    Cartesian   -0.44
    169 z          6.594641      6.590872    -0.003770    Cartesian   -0.06
    170 x          6.594641      6.594493    -0.000148    Cartesian   -0.00
    170 y         10.991069     10.994572     0.003503    Cartesian    0.03
    170 z         10.991069     10.937149    -0.053920    Cartesian   -0.49
    171 x          4.396427      4.483133     0.086706    Cartesian    1.97
    171 y          8.792855      8.711924    -0.080931    Cartesian   -0.92
    171 z         13.189282     13.261153     0.071871    Cartesian    0.54
    172 x          6.594641      6.598056     0.003414    Cartesian    0.05
    172 y         15.387496     15.390663     0.003167    Cartesian    0.02
    172 z          6.594641      6.542731    -0.051910    Cartesian   -0.79
    173 x          2.198214      2.198214     0.000000    Cartesian    0.00
    173 y          2.198214      2.198214     0.000000    Cartesian    0.00
    173 z         15.387496     15.425464     0.037968    Cartesian    0.25
    174 x          4.396427      4.516100     0.119672    Cartesian    2.72
    174 y         17.585710     17.657562     0.071852    Cartesian    0.41
    174 z          0.000000      0.000000     0.000000    Cartesian    0.00
    175 x          8.792855      8.881471     0.088616    Cartesian    1.01
    175 y         13.189282     13.279890     0.090608    Cartesian    0.69
    175 z          8.792855      8.804921     0.012066    Cartesian    0.14
    176 x         13.189282     13.175077    -0.014205    Cartesian   -0.11
    176 y         13.189282     13.175077    -0.014205    Cartesian   -0.11
    176 z          0.000000      0.000000     0.000000    Cartesian    0.00
    177 x          2.198214      2.198214     0.000000    Cartesian    0.00
    177 y          6.594641      6.541450    -0.053192    Cartesian   -0.81
    177 z         15.387496     15.353098    -0.034398    Cartesian   -0.22
    178 x         10.991069     10.982609    -0.008459    Cartesian   -0.08
    178 y         15.387496     15.384015    -0.003481    Cartesian   -0.02
    178 z         -2.198214     -2.171898     0.026316    Cartesian   -1.20
    179 x          4.396427      4.266797    -0.129631    Cartesian   -2.95
    179 y         17.585710     17.599362     0.013652    Cartesian    0.08
    179 z          4.396427      4.438717     0.042289    Cartesian    0.96
    180 x          8.792855      8.880841     0.087986    Cartesian    1.00
    180 y          8.792855      8.880841     0.087986    Cartesian    1.00
    180 z         13.189282     13.165378    -0.023904    Cartesian   -0.18
    181 x         13.189282     13.273696     0.084414    Cartesian    0.64
    181 y         13.189282     13.273696     0.084414    Cartesian    0.64
    181 z          4.396427      4.354764    -0.041663    Cartesian   -0.95
    182 x          6.594641      6.629468     0.034827    Cartesian    0.53
    182 y          6.594641      6.629468     0.034827    Cartesian    0.53
    182 z         15.387496     15.374864    -0.012632    Cartesian   -0.08
    183 x         10.991069     10.945238    -0.045831    Cartesian   -0.42
    183 y         10.991069     10.945238    -0.045831    Cartesian   -0.42
    183 z         10.991069     10.971279    -0.019790    Cartesian   -0.18
    184 x          8.792855      8.635695    -0.157160    Cartesian   -1.79
    184 y         17.585710     17.696607     0.110897    Cartesian    0.63
    184 z          0.000000      0.000000     0.000000    Cartesian    0.00
    185 x          2.198214      2.198214     0.000000    Cartesian    0.00
    185 y         15.387496     15.387625     0.000129    Cartesian    0.00
    185 z         10.991069     10.915852    -0.075217    Cartesian   -0.68
    186 x         10.991069     10.994971     0.003902    Cartesian    0.04
    186 y         15.387496     15.346907    -0.040589    Cartesian   -0.26
    186 z          6.594641      6.594464    -0.000177    Cartesian   -0.00
    187 x          8.792855      8.865011     0.072156    Cartesian    0.82
    187 y         17.585710     17.610872     0.025162    Cartesian    0.14
    187 z          4.396427      4.416833     0.020405    Cartesian    0.46
    188 x          4.396427      4.424911     0.028483    Cartesian    0.65
    188 y         13.189282     13.190184     0.000902    Cartesian    0.01
    188 z         13.189282     13.317723     0.128440    Cartesian    0.97
    189 x          6.594641      6.590322    -0.004320    Cartesian   -0.07
    189 y         15.387496     15.338117    -0.049379    Cartesian   -0.32
    189 z         10.991069     10.990899    -0.000169    Cartesian   -0.00
    190 x          2.198214      2.198214     0.000000    Cartesian    0.00
    190 y         10.991069     11.010071     0.019003    Cartesian    0.17
    190 z         15.387496     15.331004    -0.056492    Cartesian   -0.37
    191 x          2.198214      2.198214     0.000000    Cartesian    0.00
    191 y         19.783924     19.732071    -0.051853    Cartesian   -0.26
    191 z         -2.198214     -2.212691    -0.014478    Cartesian    0.66
    192 x          4.396427      4.398732     0.002305    Cartesian    0.05
    192 y         17.585710     17.646312     0.060602    Cartesian    0.34
    192 z          8.792855      8.879636     0.086781    Cartesian    0.99
    193 x          4.396427      4.274010    -0.122417    Cartesian   -2.78
    193 y          4.396427      4.274010    -0.122417    Cartesian   -2.78
    193 z         17.585710     17.641163     0.055453    Cartesian    0.32
    194 x         13.189282     13.197727     0.008445    Cartesian    0.06
    194 y         13.189282     13.197727     0.008445    Cartesian    0.06
    194 z          8.792855      8.789730    -0.003125    Cartesian   -0.04

  Time to end of optimisation  =      185.4053 seconds

  Timing analysis for GULP :

  Task / Subroutine                                          Time (Seconds)
  Calculation of reciprocal space energy and derivatives          0.0004
  Calculation of reciprocal space energy using symmetry           0.0007
  Calculation of real space energy and derivatives                0.0021
  Calculation of real space energy using symmetry                 0.0068
  Calculation for region 1 energy and derivatives (2-b)         106.3513
  Calculation for region 2a energy                               73.8279
  Calculation for region 2b energy                                0.0003
  Calculation and manipulation of Hessian matrix                  4.2764
  Calculation of matrix inversion                                 0.2599
  Symmetry generation of equivalent positions                     0.0027

  Dump file written as Na3OCl.grs

  Job Finished at 14:15.04 30th December   2020