  Job Started  at 14:32.15  2nd January    2021

  Number of CPUs =     1

  Total number of configurations input =      1

*  Input for Configuration =   1                                               *

  Formula = ClONa3

  Number of irreducible atoms/shells =       5

  Total number atoms/shells =       7

  Dimensionality = 3               :  Bulk

  Symmetry :

  Crystal family                   :  Cubic
  Crystal class  (Groth - 1921)    :  Cubic Hexakisoctahedral

  Space group (centrosymmetric)    :  P M 3 M

  Patterson group                  :  P m -3 m

  Cartesian lattice vectors (Angstroms) :

        4.504000    0.000000    0.000000
        0.000000    4.504000    0.000000
        0.000000    0.000000    4.504000

  Cell parameters (Angstroms/Degrees):

  a =       4.5040    alpha =  90.0000
  b =       4.5040    beta  =  90.0000
  c =       4.5040    gamma =  90.0000

  Initial cell volume =          91.368216 Angs**3

  Temperature of configuration =   0.00     K

  Pressure of configuration =         0.000 GPa

  Fractional coordinates of asymmetric unit :

   No.  Atomic       x           y          z         Charge      Occupancy
        Label      (Frac)      (Frac)     (Frac)        (e)         (Frac)
      1 Cl    c    0.000000    0.000000    0.000000     1.48500    1.000000
      2 O     c    0.500000    0.500000    0.500000     0.18300    1.000000
      3 Na    c    0.500000    0.500000    0.000000     1.00000    1.000000
      4 Cl    s    0.000000    0.000000    0.000000    -2.48500    1.000000
      5 O     s    0.500000    0.500000    0.500000    -2.18300    1.000000

  Constraints :

  Constraint no.      Unconstrained     Constrained    Coefficient    Offset
                         Variable         Variable
           1              Strain 1        Strain 2       1.00000      0.0000
           2              Strain 1        Strain 3       1.00000      0.0000

*  General input information                                                   *

  Species output for all configurations :

  Species    Type    Atomic    Atomic    Charge       Radii (Angs)     Library
                     Number     Mass       (e)     Cova   Ionic  VDW   Symbol
    Na       Core       11      22.99   1.000000   0.970  0.000  2.300
    O        Core        8      16.00   0.183000   0.730  0.000  1.360
    O        Shell       8       0.00  -2.183000   0.730  0.000  1.360
    Cl       Core       17      35.45   1.485000   0.990  0.000  1.650
    Cl       Shell      17       0.00  -2.485000   0.990  0.000  1.650
    Mg       Core       12      24.31   0.415000   1.100  0.000  0.000
    Mg       Shell      12       0.00   1.585000   1.100  0.000  0.000
    Ca       Core       20      40.08  -1.135000   0.990  0.000  0.000
    Ca       Shell      20       0.00   3.135000   0.990  0.000  0.000
    Sr       Core       38      87.62  -1.251000   1.120  0.000  0.000
    Sr       Shell      38       0.00   3.251000   1.120  0.000  0.000
    Ba       Core       56     137.33  -7.203000   1.340  0.000  0.000
    Ba       Shell      56       0.00   9.203000   1.340  0.000  0.000

  Lattice summation method               =    Ewald          (3-D)
                                         =    Parry          (2-D)
                                         =    Saunders et al (1-D)
  Accuracy factor for lattice sums       =   12.000

  Analytic derivatives to be used

  Time limit = Infinity

  Maximum range for interatomic potentials =    100000.000000 Angstroms

  General interatomic potentials :

Atom  Types   Potential      Parameter       Value         Units   Cutoffs(Ang)
  1     2                                                            Min /  Max
O    c O    s Spring (c-s)  Spring k 2       593.71600    eV*Ang^-2 0.000  0.800
                            Spring k 4       0.0000000    eV*Ang^-4
Cl   c Cl   s Spring (c-s)  Spring k 2       29.380000    eV*Ang^-2 0.000  0.800
                            Spring k 4       0.0000000    eV*Ang^-4
Mg   c Mg   s Spring (c-s)  Spring k 2       361.60000    eV*Ang^-2 0.000  0.800
                            Spring k 4       0.0000000    eV*Ang^-4
Ca   c Ca   s Spring (c-s)  Spring k 2       110.20000    eV*Ang^-2 0.000  0.800
                            Spring k 4       0.0000000    eV*Ang^-4
Sr   c Sr   s Spring (c-s)  Spring k 2       71.700000    eV*Ang^-2 0.000  0.800
                            Spring k 4       0.0000000    eV*Ang^-4
Ba   c Ba   s Spring (c-s)  Spring k 2       495.20000    eV*Ang^-2 0.000  0.800
                            Spring k 4       0.0000000    eV*Ang^-4
Na   c Na   c Buckingham    Buckingham A     1788.1900    eV        0.000 12.000
                            Buckingham rho  0.15900000    Ang
                            Buckingham C     0.0000000    eV*Ang^6
Na   c O    s Buckingham    Buckingham A     1225.1100    eV        0.000 12.000
                            Buckingham rho  0.30700000    Ang
                            Buckingham C     0.0000000    eV*Ang^6
Na   c Cl   s Buckingham    Buckingham A     2292.5300    eV        0.000 12.000
                            Buckingham rho  0.29000000    Ang
                            Buckingham C     0.0000000    eV*Ang^6
O    s O    s Buckingham    Buckingham A     22764.300    eV        0.000 12.000
                            Buckingham rho  0.14900000    Ang
                            Buckingham C     13.190000    eV*Ang^6
O    s Cl   s Buckingham    Buckingham A     8286.9100    eV        0.000 12.000
                            Buckingham rho  0.25900000    Ang
                            Buckingham C     62.200000    eV*Ang^6
Cl   s Cl   s Buckingham    Buckingham A     1227.2000    eV        0.000 12.000
                            Buckingham rho  0.32100000    Ang
                            Buckingham C     14.530000    eV*Ang^6
O    s Mg   s Buckingham    Buckingham A     1428.5000    eV        0.000 12.000
                            Buckingham rho  0.29450000    Ang
                            Buckingham C     0.0000000    eV*Ang^6
Mg   s Cl   s Buckingham    Buckingham A     4914.5400    eV        0.000 12.000
                            Buckingham rho  0.25700000    Ang
                            Buckingham C     0.0000000    eV*Ang^6
O    s Ca   s Buckingham    Buckingham A     1090.4000    eV        0.000 12.000
                            Buckingham rho  0.34370000    Ang
                            Buckingham C     0.0000000    eV*Ang^6
Cl   s Ca   s Buckingham    Buckingham A     2302.0000    eV        0.000 12.000
                            Buckingham rho  0.34020000    Ang
                            Buckingham C     0.0000000    eV*Ang^6
O    s Sr   s Buckingham    Buckingham A     959.10000    eV        0.000 12.000
                            Buckingham rho  0.37210000    Ang
                            Buckingham C     0.0000000    eV*Ang^6
Cl   s Sr   s Buckingham    Buckingham A     2191.0900    eV        0.000 12.000
                            Buckingham rho  0.34570000    Ang
                            Buckingham C     0.0000000    eV*Ang^6
O    s Ba   s Buckingham    Buckingham A     905.70000    eV        0.000 12.000
                            Buckingham rho  0.39760000    Ang
                            Buckingham C     0.0000000    eV*Ang^6
Cl   s Ba   s Buckingham    Buckingham A     2704.5500    eV        0.000 12.000
                            Buckingham rho  0.35280000    Ang
                            Buckingham C     0.0000000    eV*Ang^6

*  Output for configuration   1                                                *

  Components of energy :

  Interatomic potentials     =           5.11892891 eV
  Monopole - monopole (real) =         -10.03624526 eV
  Monopole - monopole (recip)=         -29.53581274 eV
  Monopole - monopole (total)=         -39.57205800 eV
  Total lattice energy       =         -34.45312908 eV
  Total lattice energy       =           -3324.2003 kJ/(mole unit cells)

  Number of variables =        1

  Maximum number of calculations  =          1000
  Maximum Hessian update interval =            10
  Maximum step size               =   1.000000000
  Maximum parameter tolerance     =   0.000010000
  Maximum function  tolerance     =   0.000010000
  Maximum gradient  tolerance     =   0.001000000
  Maximum gradient  component     =   0.010000000

  Symmetry constrained optimisation

  Symmetry used for second derivatives

  Cell parameters to be optimised using strains

  Newton-Raphson optimiser to be used

  BFGS hessian update to be used

  Lower half triangular hessian to be used

  Start of bulk optimisation :

  ** Hessian calculated **

  **** Optimisation achieved ****

  Final energy =     -34.45314929 eV
  Final Gnorm  =       0.00000018

  Components of energy :

  Interatomic potentials     =           5.10244234 eV
  Monopole - monopole (real) =         -10.03206906 eV
  Monopole - monopole (recip)=         -29.52352256 eV
  Monopole - monopole (total)=         -39.55559162 eV
  Total lattice energy       =         -34.45314929 eV
  Total lattice energy       =           -3324.2022 kJ/(mole unit cells)

  Final asymmetric unit coordinates :

   No.  Atomic        x           y           z         Radius
        Label       (Frac)      (Frac)      (Frac)       (Angs)
     1  Cl    c     0.000000    0.000000    0.000000    0.000000
     2  O     c     0.500000    0.500000    0.500000    0.000000
     3  Na    c     0.500000    0.500000    0.000000    0.000000
     4  Cl    s     0.000000    0.000000    0.000000    0.000000
     5  O     s     0.500000    0.500000    0.500000    0.000000

  Final Cartesian lattice vectors (Angstroms) :

        4.505875    0.000000    0.000000
        0.000000    4.505875    0.000000
        0.000000    0.000000    4.505875

  Final cell parameters and derivatives :

       a            4.505875 Angstrom     dE/de1(xx)    -0.000000 eV/strain
       b            4.505875 Angstrom     dE/de2(yy)     0.000000 eV/strain
       c            4.505875 Angstrom     dE/de3(zz)     0.000000 eV/strain
       alpha       90.000000 Degrees      dE/de4(yz)     0.000000 eV/strain
       beta        90.000000 Degrees      dE/de5(xz)     0.000000 eV/strain
       gamma       90.000000 Degrees      dE/de6(xy)     0.000000 eV/strain

  Primitive cell volume =            91.482369 Angs**3

  Density of cell =      2.185834 g/cm**3

  Non-primitive cell volume =            91.482369 Angs**3

  Final internal derivatives :

   No.  Atomic          a             b             c           Radius
        Label          (eV)          (eV)          (eV)        (eV/Angs)
      1 Cl    c       0.000000      0.000000      0.000000      0.000000
      2 O     c       0.000000      0.000000      0.000000      0.000000
      3 Na    c       0.000000      0.000000      0.000000      0.000000
      4 Cl    s       0.000000      0.000000      0.000000      0.000000
      5 O     s       0.000000      0.000000      0.000000      0.000000
  Maximum abs         0.000000      0.000000      0.000000      0.000000

  Comparison of initial and final structures :

[...]
   310  Cl    s     9.048422   -4.542547    0.000000    0.000000   -2.485000
   311  Cl    s    -4.542547    9.048422    0.000000    0.000000   -2.485000
   312  Cl    s    -4.542547   -4.542547    0.000000    0.000000   -2.485000

  Final coordinates of symmetry reduced region 1 (relative to defect centre):

   No.  Atomic        x           y           z          Charge
        Label       (Angs)      (Angs)      (Angs)         (e)
     1  O     c     0.000000    0.000000   -2.307413    0.183000
     2  Cl    c     2.377543    2.377543    0.000000    1.485000
     3  Na    c     2.175412    0.000000   -1.833093    1.000000
     4  Na    c     0.000000    0.000000    4.490396    1.000000
     5  Na    c     0.000000    4.831242    0.000000    1.000000
     6  O     c     0.000000    4.465311   -2.229766    0.183000
     7  Cl    c     2.350413    2.350413    4.629058    1.485000
     8  Na    c     2.248695    4.456001   -2.235253    1.000000
     9  Na    c     0.000000    4.186553    4.479394    1.000000
    10  Na    c     4.499714    4.499714    0.000000    1.000000
    11  O     c     0.000000    0.000000    6.780728    0.183000
    12  O     c     4.506800    4.506800   -2.258687    0.183000
    13  Cl    c     2.268530    6.776676    0.000000    1.485000
    14  Na    c     2.239631    0.000000    6.837831    1.000000
    15  Na    c     6.722986    0.000000   -2.492596    1.000000
    16  Na    c     4.486769    4.486769    4.509543    1.000000
    17  O     c     0.000000    4.480430    6.746457    0.183000
    18  Cl    c     2.254804    6.808315    4.506626    1.485000
    19  Na    c     2.254578    4.498459    6.715242    1.000000
    20  Na    c     6.754919    4.492922   -2.263829    1.000000
    21  Na    c     0.000000    0.000000    9.033804    1.000000
    22  Na    c     0.000000    8.872726    0.000000    1.000000
    23  O     c     0.000000    8.987922   -2.263755    0.183000
    24  O     c     4.516148    4.516148    6.768192    0.183000
    25  Cl    c     2.233282    2.233282    9.060357    1.485000
    26  Cl    c     6.792077    6.792077    0.000000    1.485000
    27  Na    c     2.248886    8.986012   -2.231045    1.000000
    28  Na    c     6.735911    0.000000    6.676740    1.000000
    29  O     s     0.000000    0.000000   -2.307543   -2.183000
    30  Cl    s     2.379062    2.379062    0.000000   -2.485000
    31  O     s     0.000000    4.465383   -2.229749   -2.183000
    32  Cl    s     2.362738    2.362738    4.642942   -2.485000
    33  O     s     0.000000    0.000000    6.780816   -2.183000
    34  O     s     4.506797    4.506797   -2.258691   -2.183000
    35  Cl    s     2.266022    6.777138    0.000000   -2.485000
    36  O     s     0.000000    4.480375    6.746478   -2.183000
    37  Cl    s     2.252249    6.814658    4.504955   -2.485000
    38  O     s     0.000000    8.987907   -2.263811   -2.183000
    39  O     s     4.516162    4.516162    6.768190   -2.183000
    40  Cl    s     2.230070    2.230070    9.063226   -2.485000
    41  Cl    s     6.795485    6.795485    0.000000   -2.485000

  Final derivatives for region 1 :

   No.  Atomic          x             y             z            Radius
        Label       (eV/Angs)     (eV/Angs)     (eV/Angs)       (eV/Angs)
     1  O     c       0.000000      0.000000     -0.001037      0.000000
     2  Cl    c      -0.000765      0.000000      0.000000      0.000000
     3  Na    c      -0.000482      0.000000      0.000080      0.000000
     4  Na    c       0.000000      0.000000      0.000078      0.000000
     5  Na    c       0.000000     -0.000030      0.000000      0.000000
     6  O     c       0.000000      0.001076     -0.002071      0.000000
     7  Cl    c      -0.001012      0.000000     -0.000682      0.000000
     8  Na    c      -0.000341     -0.000197     -0.000182      0.000000
     9  Na    c       0.000000     -0.000197      0.000128      0.000000
    10  Na    c      -0.000286      0.000000      0.000000      0.000000
    11  O     c       0.000000      0.000000     -0.000515      0.000000
    12  O     c       0.001595      0.000000     -0.000502      0.000000
    13  Cl    c       0.000485      0.000127      0.000000      0.000000
    14  Na    c       0.000027      0.000000      0.000008      0.000000
    15  Na    c      -0.000319      0.000000     -0.000620      0.000000
    16  Na    c       0.000018      0.000000     -0.000114      0.000000
    17  O     c       0.000000      0.003143      0.001106      0.000000
    18  Cl    c       0.000972     -0.001241      0.000508      0.000000
    19  Na    c      -0.000016      0.000011     -0.000227      0.000000
    20  Na    c      -0.000214      0.000209      0.000714      0.000000
    21  Na    c       0.000000      0.000000     -0.000013      0.000000
    22  Na    c       0.000000     -0.000094      0.000000      0.000000
    23  O     c       0.000000      0.002651      0.002290      0.000000
    24  O     c      -0.001183      0.000000     -0.000240      0.000000
    25  Cl    c       0.000943      0.000000     -0.000334      0.000000
    26  Cl    c      -0.000210      0.000000      0.000000      0.000000
    27  Na    c      -0.000087      0.000177      0.000104      0.000000
    28  Na    c      -0.000133      0.000000     -0.000093      0.000000
    29  O     s       0.000000      0.000000     -0.000732      0.000000
    30  Cl    s      -0.000405      0.000000      0.000000      0.000000
    31  O     s       0.000000      0.000449     -0.000216      0.000000
    32  Cl    s      -0.002695      0.000000     -0.001605      0.000000
    33  O     s       0.000000      0.000000     -0.000623      0.000000
    34  O     s       0.000076      0.000000      0.000318      0.000000
    35  Cl    s      -0.000873     -0.000266      0.000000      0.000000
    36  O     s       0.000000      0.002833      0.001002      0.000000
    37  Cl    s       0.000259     -0.001272     -0.000428      0.000000
    38  O     s       0.000000      0.001285      0.002933      0.000000
    39  O     s      -0.001457      0.000000     -0.000365      0.000000
    40  Cl    s       0.000891      0.000000     -0.000331      0.000000
    41  Cl    s      -0.000164      0.000000      0.000000      0.000000

  Comparison of initial and final region 1 :

  Parameter   Initial value   Final value   Difference    Units      Percent
      1 x          2.252937      2.252937     0.000000    Cartesian    0.00
      1 y          2.252937      2.252937     0.000000    Cartesian    0.00
      1 z         -2.252937     -2.307413    -0.054476    Cartesian    2.42
      2 x          4.505875      4.630481     0.124606    Cartesian    2.77
      2 y          4.505875      4.630481     0.124606    Cartesian    2.77
      2 z          0.000000      0.000000     0.000000    Cartesian    0.00
      3 x          4.505875      4.428350    -0.077525    Cartesian   -1.72
      3 y          2.252937      2.252937     0.000000    Cartesian    0.00
      3 z         -2.252937     -1.833093     0.419844    Cartesian  -18.64
      4 x          2.252937      2.252937     0.000000    Cartesian    0.00
      4 y          2.252937      2.252937     0.000000    Cartesian    0.00
      4 z          4.505875      4.490396    -0.015479    Cartesian   -0.34
      5 x          2.252937      2.252937     0.000000    Cartesian    0.00
      5 y          6.758812      7.084179     0.325367    Cartesian    4.81
      5 z          0.000000      0.000000     0.000000    Cartesian    0.00
      6 x          2.252937      2.252937     0.000000    Cartesian    0.00
      6 y          6.758812      6.718249    -0.040564    Cartesian   -0.60
      6 z         -2.252937     -2.229766     0.023172    Cartesian   -1.03
      7 x          4.505875      4.603350     0.097475    Cartesian    2.16
      7 y          4.505875      4.603350     0.097475    Cartesian    2.16
      7 z          4.505875      4.629058     0.123183    Cartesian    2.73
      8 x          4.505875      4.501632    -0.004243    Cartesian   -0.09
      8 y          6.758812      6.708938    -0.049874    Cartesian   -0.74
      8 z         -2.252937     -2.235253     0.017684    Cartesian   -0.78
      9 x          2.252937      2.252937     0.000000    Cartesian    0.00
      9 y          6.758812      6.439490    -0.319322    Cartesian   -4.72
      9 z          4.505875      4.479394    -0.026481    Cartesian   -0.59
     10 x          6.758812      6.752652    -0.006161    Cartesian   -0.09
     10 y          6.758812      6.752652    -0.006161    Cartesian   -0.09
     10 z          0.000000      0.000000     0.000000    Cartesian    0.00
     11 x          2.252937      2.252937     0.000000    Cartesian    0.00
     11 y          2.252937      2.252937     0.000000    Cartesian    0.00
     11 z          6.758812      6.780728     0.021916    Cartesian    0.32
     12 x          6.758812      6.759737     0.000925    Cartesian    0.01
     12 y          6.758812      6.759737     0.000925    Cartesian    0.01
     12 z         -2.252937     -2.258687    -0.005750    Cartesian    0.26
     13 x          4.505875      4.521468     0.015593    Cartesian    0.35
     13 y          9.011750      9.029613     0.017863    Cartesian    0.20
     13 z          0.000000      0.000000     0.000000    Cartesian    0.00
     14 x          4.505875      4.492569    -0.013306    Cartesian   -0.30
     14 y          2.252937      2.252937     0.000000    Cartesian    0.00
     14 z          6.758812      6.837831     0.079019    Cartesian    1.17
     15 x          9.011750      8.975923    -0.035827    Cartesian   -0.40
     15 y          2.252937      2.252937     0.000000    Cartesian    0.00
     15 z         -2.252937     -2.492596    -0.239659    Cartesian   10.64
     16 x          6.758812      6.739706    -0.019106    Cartesian   -0.28
     16 y          6.758812      6.739706    -0.019106    Cartesian   -0.28
     16 z          4.505875      4.509543     0.003668    Cartesian    0.08
     17 x          2.252937      2.252937     0.000000    Cartesian    0.00
     17 y          6.758812      6.733367    -0.025445    Cartesian   -0.38
     17 z          6.758812      6.746457    -0.012356    Cartesian   -0.18
     18 x          4.505875      4.507742     0.001867    Cartesian    0.04
     18 y          9.011750      9.061252     0.049502    Cartesian    0.55
     18 z          4.505875      4.506626     0.000751    Cartesian    0.02
     19 x          4.505875      4.507516     0.001641    Cartesian    0.04
     19 y          6.758812      6.751396    -0.007416    Cartesian   -0.11
     19 z          6.758812      6.715242    -0.043570    Cartesian   -0.64
     20 x          9.011750      9.007856    -0.003894    Cartesian   -0.04
     20 y          6.758812      6.745859    -0.012953    Cartesian   -0.19
     20 z         -2.252937     -2.263829    -0.010891    Cartesian    0.48
     21 x          2.252937      2.252937     0.000000    Cartesian    0.00
     21 y          2.252937      2.252937     0.000000    Cartesian    0.00
     21 z          9.011750      9.033804     0.022054    Cartesian    0.24
     22 x          2.252937      2.252937     0.000000    Cartesian    0.00
     22 y         11.264687     11.125664    -0.139024    Cartesian   -1.23
     22 z          0.000000      0.000000     0.000000    Cartesian    0.00
     23 x          2.252937      2.252937     0.000000    Cartesian    0.00
     23 y         11.264687     11.240860    -0.023828    Cartesian   -0.21
     23 z         -2.252937     -2.263755    -0.010817    Cartesian    0.48
     24 x          6.758812      6.769086     0.010274    Cartesian    0.15
     24 y          6.758812      6.769086     0.010274    Cartesian    0.15
     24 z          6.758812      6.768192     0.009379    Cartesian    0.14
     25 x          4.505875      4.486220    -0.019655    Cartesian   -0.44
     25 y          4.505875      4.486220    -0.019655    Cartesian   -0.44
     25 z          9.011750      9.060357     0.048607    Cartesian    0.54
     26 x          9.011750      9.045014     0.033264    Cartesian    0.37
     26 y          9.011750      9.045014     0.033264    Cartesian    0.37
     26 z          0.000000      0.000000     0.000000    Cartesian    0.00
     27 x          4.505875      4.501824    -0.004051    Cartesian   -0.09
     27 y         11.264687     11.238950    -0.025737    Cartesian   -0.23
     27 z         -2.252937     -2.231045     0.021892    Cartesian   -0.97
     28 x          9.011750      8.988849    -0.022901    Cartesian   -0.25
     28 y          2.252937      2.252937     0.000000    Cartesian    0.00
     28 z          6.758812      6.676740    -0.082072    Cartesian   -1.21
     29 x          2.252937      2.252937     0.000000    Cartesian    0.00
     29 y          2.252937      2.252937     0.000000    Cartesian    0.00
     29 z         -2.252937     -2.307543    -0.054605    Cartesian    2.42
     30 x          4.505875      4.631999     0.126124    Cartesian    2.80
     30 y          4.505875      4.631999     0.126124    Cartesian    2.80
     30 z          0.000000      0.000000     0.000000    Cartesian    0.00
     31 x          2.252937      2.252937     0.000000    Cartesian    0.00
     31 y          6.758812      6.718321    -0.040492    Cartesian   -0.60
     31 z         -2.252937     -2.229749     0.023188    Cartesian   -1.03
     32 x          4.505875      4.615675     0.109800    Cartesian    2.44
     32 y          4.505875      4.615675     0.109800    Cartesian    2.44
     32 z          4.505875      4.642942     0.137067    Cartesian    3.04
     33 x          2.252937      2.252937     0.000000    Cartesian    0.00
     33 y          2.252937      2.252937     0.000000    Cartesian    0.00
     33 z          6.758812      6.780816     0.022004    Cartesian    0.33
     34 x          6.758812      6.759735     0.000922    Cartesian    0.01
     34 y          6.758812      6.759735     0.000922    Cartesian    0.01
     34 z         -2.252937     -2.258691    -0.005753    Cartesian    0.26
     35 x          4.505875      4.518960     0.013085    Cartesian    0.29
     35 y          9.011750      9.030076     0.018326    Cartesian    0.20
     35 z          0.000000      0.000000     0.000000    Cartesian    0.00
     36 x          2.252937      2.252937     0.000000    Cartesian    0.00
     36 y          6.758812      6.733313    -0.025500    Cartesian   -0.38
     36 z          6.758812      6.746478    -0.012335    Cartesian   -0.18
     37 x          4.505875      4.505186    -0.000689    Cartesian   -0.02
     37 y          9.011750      9.067595     0.055845    Cartesian    0.62
     37 z          4.505875      4.504955    -0.000920    Cartesian   -0.02
     38 x          2.252937      2.252937     0.000000    Cartesian    0.00
     38 y         11.264687     11.240845    -0.023843    Cartesian   -0.21
     38 z         -2.252937     -2.263811    -0.010874    Cartesian    0.48
     39 x          6.758812      6.769100     0.010287    Cartesian    0.15
     39 y          6.758812      6.769100     0.010287    Cartesian    0.15
     39 z          6.758812      6.768190     0.009378    Cartesian    0.14
     40 x          4.505875      4.483008    -0.022867    Cartesian   -0.51
     40 y          4.505875      4.483008    -0.022867    Cartesian   -0.51
     40 z          9.011750      9.063226     0.051476    Cartesian    0.57
     41 x          9.011750      9.048422     0.036672    Cartesian    0.41
     41 y          9.011750      9.048422     0.036672    Cartesian    0.41
     41 z          0.000000      0.000000     0.000000    Cartesian    0.00

  Time to end of optimisation  =        4.0372 seconds

  Timing analysis for GULP :

  Task / Subroutine                                          Time (Seconds)
  Calculation of reciprocal space energy and derivatives          0.0002
  Calculation of reciprocal space energy using symmetry           0.0002
  Calculation of real space energy and derivatives                0.0012
  Calculation of real space energy using symmetry                 0.0025
  Calculation for region 1 energy and derivatives (2-b)           0.8332
  Calculation for region 2a energy                                3.1387
  Calculation for region 2b energy                                0.0001
  Calculation and manipulation of Hessian matrix                  0.0127
  Calculation of matrix inversion                                 0.0004
  Symmetry generation of equivalent positions                     0.0014

  Dump file written as Na3OCl.grs

  Job Finished at 14:32.19  2nd January    2021