  Job Started  at 14:37.25 30th December   2020

  Number of CPUs =     1

  Total number of configurations input =      1

*  Input for Configuration =   1                                               *

  Formula = ClONa3

  Number of irreducible atoms/shells =       5

  Total number atoms/shells =       7

  Dimensionality = 3               :  Bulk

  Symmetry :

  Crystal family                   :  Cubic
  Crystal class  (Groth - 1921)    :  Cubic Hexakisoctahedral

  Space group (centrosymmetric)    :  P M 3 M

  Patterson group                  :  P m -3 m

  Cartesian lattice vectors (Angstroms) :

        4.504000    0.000000    0.000000
        0.000000    4.504000    0.000000
        0.000000    0.000000    4.504000

  Cell parameters (Angstroms/Degrees):

  a =       4.5040    alpha =  90.0000
  b =       4.5040    beta  =  90.0000
  c =       4.5040    gamma =  90.0000

  Initial cell volume =          91.368216 Angs**3

  Temperature of configuration =   0.00     K

  Pressure of configuration =         0.000 GPa

  Fractional coordinates of asymmetric unit :

   No.  Atomic       x           y          z         Charge      Occupancy
        Label      (Frac)      (Frac)     (Frac)        (e)         (Frac)
      1 Cl    c    0.000000    0.000000    0.000000     1.48500    1.000000
      2 O     c    0.500000    0.500000    0.500000     0.18300    1.000000
      3 Na    c    0.500000    0.500000    0.000000     1.00000    1.000000
      4 Cl    s    0.000000    0.000000    0.000000    -2.48500    1.000000
      5 O     s    0.500000    0.500000    0.500000    -2.18300    1.000000

  Constraints :

  Constraint no.      Unconstrained     Constrained    Coefficient    Offset
                         Variable         Variable
           1              Strain 1        Strain 2       1.00000      0.0000
           2              Strain 1        Strain 3       1.00000      0.0000

*  General input information                                                   *

  Species output for all configurations :

  Species    Type    Atomic    Atomic    Charge       Radii (Angs)     Library
                     Number     Mass       (e)     Cova   Ionic  VDW   Symbol
    Na       Core       11      22.99   1.000000   0.970  0.000  2.300
    O        Core        8      16.00   0.183000   0.730  0.000  1.360
    O        Shell       8       0.00  -2.183000   0.730  0.000  1.360
    Cl       Core       17      35.45   1.485000   0.990  0.000  1.650
    Cl       Shell      17       0.00  -2.485000   0.990  0.000  1.650
    Mg       Core       12      24.31   0.415000   1.100  0.000  0.000
    Mg       Shell      12       0.00   1.585000   1.100  0.000  0.000
    Ca       Core       20      40.08  -1.135000   0.990  0.000  0.000
    Ca       Shell      20       0.00   3.135000   0.990  0.000  0.000
    Sr       Core       38      87.62  -1.251000   1.120  0.000  0.000
    Sr       Shell      38       0.00   3.251000   1.120  0.000  0.000
    Ba       Core       56     137.33  -7.203000   1.340  0.000  0.000
    Ba       Shell      56       0.00   9.203000   1.340  0.000  0.000

  Lattice summation method               =    Ewald          (3-D)
                                         =    Parry          (2-D)
                                         =    Saunders et al (1-D)
  Accuracy factor for lattice sums       =   12.000

  Analytic derivatives to be used

  Time limit = Infinity

  Maximum range for interatomic potentials =    100000.000000 Angstroms

  General interatomic potentials :

Atom  Types   Potential      Parameter       Value         Units   Cutoffs(Ang)
  1     2                                                            Min /  Max
O    c O    s Spring (c-s)  Spring k 2       593.71600    eV*Ang^-2 0.000  0.800
                            Spring k 4       0.0000000    eV*Ang^-4
Cl   c Cl   s Spring (c-s)  Spring k 2       29.380000    eV*Ang^-2 0.000  0.800
                            Spring k 4       0.0000000    eV*Ang^-4
Mg   c Mg   s Spring (c-s)  Spring k 2       361.60000    eV*Ang^-2 0.000  0.800
                            Spring k 4       0.0000000    eV*Ang^-4
Ca   c Ca   s Spring (c-s)  Spring k 2       110.20000    eV*Ang^-2 0.000  0.800
                            Spring k 4       0.0000000    eV*Ang^-4
Sr   c Sr   s Spring (c-s)  Spring k 2       71.700000    eV*Ang^-2 0.000  0.800
                            Spring k 4       0.0000000    eV*Ang^-4
Ba   c Ba   s Spring (c-s)  Spring k 2       495.20000    eV*Ang^-2 0.000  0.800
                            Spring k 4       0.0000000    eV*Ang^-4
Na   c Na   c Buckingham    Buckingham A     1788.1900    eV        0.000 12.000
                            Buckingham rho  0.15900000    Ang
                            Buckingham C     0.0000000    eV*Ang^6
Na   c O    s Buckingham    Buckingham A     1225.1100    eV        0.000 12.000
                            Buckingham rho  0.30700000    Ang
                            Buckingham C     0.0000000    eV*Ang^6
Na   c Cl   s Buckingham    Buckingham A     2292.5300    eV        0.000 12.000
                            Buckingham rho  0.29000000    Ang
                            Buckingham C     0.0000000    eV*Ang^6
O    s O    s Buckingham    Buckingham A     22764.300    eV        0.000 12.000
                            Buckingham rho  0.14900000    Ang
                            Buckingham C     13.190000    eV*Ang^6
O    s Cl   s Buckingham    Buckingham A     8286.9100    eV        0.000 12.000
                            Buckingham rho  0.25900000    Ang
                            Buckingham C     62.200000    eV*Ang^6
Cl   s Cl   s Buckingham    Buckingham A     1227.2000    eV        0.000 12.000
                            Buckingham rho  0.32100000    Ang
                            Buckingham C     14.530000    eV*Ang^6
O    s Mg   s Buckingham    Buckingham A     1428.5000    eV        0.000 12.000
                            Buckingham rho  0.29450000    Ang
                            Buckingham C     0.0000000    eV*Ang^6
Mg   s Cl   s Buckingham    Buckingham A     4914.5400    eV        0.000 12.000
                            Buckingham rho  0.25700000    Ang
                            Buckingham C     0.0000000    eV*Ang^6
O    s Ca   s Buckingham    Buckingham A     1090.4000    eV        0.000 12.000
                            Buckingham rho  0.34370000    Ang
                            Buckingham C     0.0000000    eV*Ang^6
Cl   s Ca   s Buckingham    Buckingham A     2302.0000    eV        0.000 12.000
                            Buckingham rho  0.34020000    Ang
                            Buckingham C     0.0000000    eV*Ang^6
O    s Sr   s Buckingham    Buckingham A     959.10000    eV        0.000 12.000
                            Buckingham rho  0.37210000    Ang
                            Buckingham C     0.0000000    eV*Ang^6
Cl   s Sr   s Buckingham    Buckingham A     2191.0900    eV        0.000 12.000
                            Buckingham rho  0.34570000    Ang
                            Buckingham C     0.0000000    eV*Ang^6
O    s Ba   s Buckingham    Buckingham A     905.70000    eV        0.000 12.000
                            Buckingham rho  0.39760000    Ang
                            Buckingham C     0.0000000    eV*Ang^6
Cl   s Ba   s Buckingham    Buckingham A     2704.5500    eV        0.000 12.000
                            Buckingham rho  0.35280000    Ang
                            Buckingham C     0.0000000    eV*Ang^6

*  Output for configuration   1                                                *

  Components of energy :

  Interatomic potentials     =           5.11892891 eV
  Monopole - monopole (real) =         -10.03624526 eV
  Monopole - monopole (recip)=         -29.53581274 eV
  Monopole - monopole (total)=         -39.57205800 eV
  Total lattice energy       =         -34.45312908 eV
  Total lattice energy       =           -3324.2003 kJ/(mole unit cells)

  Number of variables =        1

  Maximum number of calculations  =          1000
  Maximum Hessian update interval =            10
  Maximum step size               =   1.000000000
  Maximum parameter tolerance     =   0.000010000
  Maximum function  tolerance     =   0.000010000
  Maximum gradient  tolerance     =   0.001000000
  Maximum gradient  component     =   0.010000000

  Symmetry constrained optimisation

  Symmetry used for second derivatives

  Cell parameters to be optimised using strains

  Newton-Raphson optimiser to be used

  BFGS hessian update to be used

  Lower half triangular hessian to be used

  Start of bulk optimisation :

  ** Hessian calculated **

  **** Optimisation achieved ****

  Final energy =     -34.45314929 eV
  Final Gnorm  =       0.00000018

  Components of energy :

  Interatomic potentials     =           5.10244234 eV
  Monopole - monopole (real) =         -10.03206906 eV
  Monopole - monopole (recip)=         -29.52352256 eV
  Monopole - monopole (total)=         -39.55559162 eV
  Total lattice energy       =         -34.45314929 eV
  Total lattice energy       =           -3324.2022 kJ/(mole unit cells)

  Final asymmetric unit coordinates :

   No.  Atomic        x           y           z         Radius
        Label       (Frac)      (Frac)      (Frac)       (Angs)
     1  Cl    c     0.000000    0.000000    0.000000    0.000000
     2  O     c     0.500000    0.500000    0.500000    0.000000
     3  Na    c     0.500000    0.500000    0.000000    0.000000
     4  Cl    s     0.000000    0.000000    0.000000    0.000000
     5  O     s     0.500000    0.500000    0.500000    0.000000

  Final Cartesian lattice vectors (Angstroms) :

        4.505875    0.000000    0.000000
        0.000000    4.505875    0.000000
        0.000000    0.000000    4.505875

  Final cell parameters and derivatives :

       a            4.505875 Angstrom     dE/de1(xx)    -0.000000 eV/strain
       b            4.505875 Angstrom     dE/de2(yy)     0.000000 eV/strain
       c            4.505875 Angstrom     dE/de3(zz)     0.000000 eV/strain
       alpha       90.000000 Degrees      dE/de4(yz)     0.000000 eV/strain
       beta        90.000000 Degrees      dE/de5(xz)     0.000000 eV/strain
       gamma       90.000000 Degrees      dE/de6(xy)     0.000000 eV/strain

  Primitive cell volume =            91.482369 Angs**3

  Density of cell =      2.185834 g/cm**3

  Non-primitive cell volume =            91.482369 Angs**3

  Final internal derivatives :

   No.  Atomic          a             b             c           Radius
        Label          (eV)          (eV)          (eV)        (eV/Angs)
      1 Cl    c       0.000000      0.000000      0.000000      0.000000
      2 O     c       0.000000      0.000000      0.000000      0.000000
      3 Na    c       0.000000      0.000000      0.000000      0.000000
      4 Cl    s       0.000000      0.000000      0.000000      0.000000
      5 O     s       0.000000      0.000000      0.000000      0.000000
  Maximum abs         0.000000      0.000000      0.000000      0.000000

  Comparison of initial and final structures :

[...]
    46  Cl    s       0.000259      0.000000      0.000000      0.000000
    47  O     s       0.000000     -0.000397     -0.000335      0.000000
    48  Cl    s      -0.002388      0.000000     -0.000728      0.000000
    49  O     s       0.000000      0.000000     -0.000082      0.000000
    50  O     s      -0.000311      0.000000     -0.000154      0.000000
    51  Cl    s       0.001097      0.000275      0.000000      0.000000
    52  O     s       0.000000      0.000102     -0.000199      0.000000
    53  Cl    s      -0.000950      0.000558     -0.003204      0.000000
    54  O     s       0.000000     -0.000075     -0.000384      0.000000
    55  O     s       0.000288      0.000000      0.000310      0.000000
    56  Cl    s      -0.000850      0.000000      0.000380      0.000000
    57  Cl    s       0.000678      0.000000      0.000000      0.000000
    58  O     s      -0.000664      0.000212     -0.000046      0.000000
    59  Cl    s       0.000743      0.000000     -0.000414      0.000000
    60  O     s       0.000000      0.000000     -0.000020      0.000000
    61  O     s       0.000000     -0.000302     -0.000096      0.000000
    62  Cl    s       0.000126     -0.000292      0.000000      0.000000
    63  Cl    s      -0.000818      0.000452      0.000717      0.000000

  Comparison of initial and final region 1 :

  Parameter   Initial value   Final value   Difference    Units      Percent
      1 x          2.252937      2.252937     0.000000    Cartesian    0.00
      1 y          2.252937      2.252937     0.000000    Cartesian    0.00
      1 z         -2.252937     -2.311207    -0.058270    Cartesian    2.59
      2 x          4.505875      4.629322     0.123447    Cartesian    2.74
      2 y          4.505875      4.629322     0.123447    Cartesian    2.74
      2 z          0.000000      0.000000     0.000000    Cartesian    0.00
      3 x          4.505875      4.429408    -0.076467    Cartesian   -1.70
      3 y          2.252937      2.252937     0.000000    Cartesian    0.00
      3 z         -2.252937     -1.821945     0.430992    Cartesian  -19.13
      4 x          2.252937      2.252937     0.000000    Cartesian    0.00
      4 y          2.252937      2.252937     0.000000    Cartesian    0.00
      4 z          4.505875      4.506989     0.001114    Cartesian    0.02
      5 x          2.252937      2.252937     0.000000    Cartesian    0.00
      5 y          6.758812      7.142770     0.383958    Cartesian    5.68
      5 z          0.000000      0.000000     0.000000    Cartesian    0.00
      6 x          2.252937      2.252937     0.000000    Cartesian    0.00
      6 y          6.758812      6.725840    -0.032972    Cartesian   -0.49
      6 z         -2.252937     -2.230837     0.022100    Cartesian   -0.98
      7 x          4.505875      4.599141     0.093266    Cartesian    2.07
      7 y          4.505875      4.599141     0.093266    Cartesian    2.07
      7 z          4.505875      4.618490     0.112615    Cartesian    2.50
      8 x          4.505875      4.503015    -0.002860    Cartesian   -0.06
      8 y          6.758812      6.715133    -0.043679    Cartesian   -0.65
      8 z         -2.252937     -2.184493     0.068445    Cartesian   -3.04
      9 x          2.252937      2.252937     0.000000    Cartesian    0.00
      9 y          6.758812      6.341999    -0.416814    Cartesian   -6.17
      9 z          4.505875      4.471640    -0.034235    Cartesian   -0.76
     10 x          6.758812      6.828465     0.069652    Cartesian    1.03
     10 y          6.758812      6.828465     0.069652    Cartesian    1.03
     10 z          0.000000      0.000000     0.000000    Cartesian    0.00
     11 x          2.252937      2.252937     0.000000    Cartesian    0.00
     11 y          2.252937      2.252937     0.000000    Cartesian    0.00
     11 z          6.758812      6.799622     0.040810    Cartesian    0.60
     12 x          6.758812      6.762258     0.003446    Cartesian    0.05
     12 y          6.758812      6.762258     0.003446    Cartesian    0.05
     12 z         -2.252937     -2.260038    -0.007100    Cartesian    0.32
     13 x          4.505875      4.538706     0.032831    Cartesian    0.73
     13 y          9.011750      9.025858     0.014108    Cartesian    0.16
     13 z          0.000000      0.000000     0.000000    Cartesian    0.00
     14 x          4.505875      4.499436    -0.006438    Cartesian   -0.14
     14 y          2.252937      2.252937     0.000000    Cartesian    0.00
     14 z          6.758812      6.909641     0.150829    Cartesian    2.23
     15 x          9.011750      8.971297    -0.040453    Cartesian   -0.45
     15 y          2.252937      2.252937     0.000000    Cartesian    0.00
     15 z         -2.252937     -2.639679    -0.386741    Cartesian   17.17
     16 x          6.758812      6.685115    -0.073698    Cartesian   -1.09
     16 y          6.758812      6.685115    -0.073698    Cartesian   -1.09
     16 z          4.505875      4.507549     0.001674    Cartesian    0.04
     17 x          2.252937      2.252937     0.000000    Cartesian    0.00
     17 y          6.758812      6.749324    -0.009489    Cartesian   -0.14
     17 z          6.758812      6.728852    -0.029960    Cartesian   -0.44
     18 x          4.505875      4.543013     0.037138    Cartesian    0.82
     18 y          9.011750      9.063777     0.052028    Cartesian    0.58
     18 z          4.505875      4.518007     0.012132    Cartesian    0.27
     19 x          4.505875      4.505320    -0.000555    Cartesian   -0.01
     19 y          6.758812      6.745515    -0.013298    Cartesian   -0.20
     19 z          6.758812      6.727881    -0.030932    Cartesian   -0.46
     20 x          9.011750      9.008524    -0.003225    Cartesian   -0.04
     20 y          6.758812      6.744261    -0.014551    Cartesian   -0.22
     20 z         -2.252937     -2.328013    -0.075076    Cartesian    3.33
     21 x          2.252937      2.252937     0.000000    Cartesian    0.00
     21 y          2.252937      2.252937     0.000000    Cartesian    0.00
     21 z          9.011750      9.047427     0.035677    Cartesian    0.40
     22 x          2.252937      2.252937     0.000000    Cartesian    0.00
     22 y         11.264687     10.910464    -0.354224    Cartesian   -3.14
     22 z          0.000000      0.000000     0.000000    Cartesian    0.00
     23 x          2.252937      2.252937     0.000000    Cartesian    0.00
     23 y         11.264687     11.223122    -0.041565    Cartesian   -0.37
     23 z         -2.252937     -2.249077     0.003861    Cartesian   -0.17
     24 x          6.758812      6.766088     0.007276    Cartesian    0.11
     24 y          6.758812      6.766088     0.007276    Cartesian    0.11
     24 z          6.758812      6.761388     0.002576    Cartesian    0.04
     25 x          4.505875      4.482376    -0.023499    Cartesian   -0.52
     25 y          4.505875      4.482376    -0.023499    Cartesian   -0.52
     25 z          9.011750      9.018063     0.006313    Cartesian    0.07
     26 x          9.011750      9.027183     0.015433    Cartesian    0.17
     26 y          9.011750      9.027183     0.015433    Cartesian    0.17
     26 z          0.000000      0.000000     0.000000    Cartesian    0.00
     27 x          4.505875      4.503519    -0.002356    Cartesian   -0.05
     27 y         11.264687     11.232097    -0.032590    Cartesian   -0.29
     27 z         -2.252937     -2.194725     0.058212    Cartesian   -2.58
     28 x          9.011750      9.001080    -0.010670    Cartesian   -0.12
     28 y          2.252937      2.252937     0.000000    Cartesian    0.00
     28 z          6.758812      6.528801    -0.230012    Cartesian   -3.40
     29 x          2.252937      2.252937     0.000000    Cartesian    0.00
     29 y          6.758812      6.879968     0.121155    Cartesian    1.79
     29 z          9.011750      8.993145    -0.018605    Cartesian   -0.21
     30 x          2.252937      2.252937     0.000000    Cartesian    0.00
     30 y         11.264687     11.485901     0.221214    Cartesian    1.96
     30 z          4.505875      4.488404    -0.017471    Cartesian   -0.39
     31 x          6.758812      6.837222     0.078410    Cartesian    1.16
     31 y         11.264687     11.204359    -0.060328    Cartesian   -0.54
     31 z          0.000000      0.000000     0.000000    Cartesian    0.00
     32 x          6.758812      6.758417    -0.000396    Cartesian   -0.01
     32 y         11.264687     11.265016     0.000329    Cartesian    0.00
     32 z         -2.252937     -2.251718     0.001219    Cartesian   -0.05
     33 x          9.011750      9.036037     0.024287    Cartesian    0.27
     33 y          9.011750      9.036037     0.024287    Cartesian    0.27
     33 z          4.505875      4.504817    -0.001058    Cartesian   -0.02
     34 x          9.011750      9.011315    -0.000435    Cartesian   -0.00
     34 y          6.758812      6.777052     0.018240    Cartesian    0.27
     34 z          6.758812      6.725091    -0.033722    Cartesian   -0.50
     35 x          6.758812      6.769983     0.011171    Cartesian    0.17
     35 y          6.758812      6.769983     0.011171    Cartesian    0.17
     35 z          9.011750      9.007881    -0.003869    Cartesian   -0.04
     36 x          6.758812      6.703254    -0.055559    Cartesian   -0.82
     36 y         11.264687     11.288542     0.023855    Cartesian    0.21
     36 z          4.505875      4.505378    -0.000497    Cartesian   -0.01
     37 x          2.252937      2.252937     0.000000    Cartesian    0.00
     37 y          2.252937      2.252937     0.000000    Cartesian    0.00
     37 z         11.264687     11.274812     0.010125    Cartesian    0.09
     38 x          2.252937      2.252937     0.000000    Cartesian    0.00
     38 y         11.264687     11.268115     0.003428    Cartesian    0.03
     38 z          6.758812      6.739957    -0.018856    Cartesian   -0.28
     39 x          4.505875      4.482240    -0.023635    Cartesian   -0.52
     39 y         13.517625     13.581510     0.063885    Cartesian    0.47
     39 z          0.000000      0.000000     0.000000    Cartesian    0.00
     40 x          4.505875      4.509495     0.003620    Cartesian    0.08
     40 y          2.252937      2.252937     0.000000    Cartesian    0.00
     40 z         11.264687     11.238561    -0.026126    Cartesian   -0.23
     41 x         13.517625     13.494739    -0.022885    Cartesian   -0.17
     41 y          2.252937      2.252937     0.000000    Cartesian    0.00
     41 z         -2.252937     -2.075362     0.177575    Cartesian   -7.88
     42 x          4.505875      4.514657     0.008782    Cartesian    0.19
     42 y          9.011750      9.024542     0.012792    Cartesian    0.14
     42 z          9.011750      9.052644     0.040895    Cartesian    0.45
     43 x          4.505875      4.502522    -0.003353    Cartesian   -0.07
     43 y         11.264687     11.208789    -0.055899    Cartesian   -0.50
     43 z          6.758812      6.773964     0.015151    Cartesian    0.22
     44 x          9.011750      9.010195    -0.001555    Cartesian   -0.02
     44 y         11.264687     11.249012    -0.015675    Cartesian   -0.14
     44 z         -2.252937     -2.281763    -0.028826    Cartesian    1.28
     45 x          2.252937      2.252937     0.000000    Cartesian    0.00
     45 y          2.252937      2.252937     0.000000    Cartesian    0.00
     45 z         -2.252937     -2.311312    -0.058374    Cartesian    2.59
     46 x          4.505875      4.629008     0.123133    Cartesian    2.73
     46 y          4.505875      4.629008     0.123133    Cartesian    2.73
     46 z          0.000000      0.000000     0.000000    Cartesian    0.00
     47 x          2.252937      2.252937     0.000000    Cartesian    0.00
     47 y          6.758812      6.725896    -0.032916    Cartesian   -0.49
     47 z         -2.252937     -2.230828     0.022109    Cartesian   -0.98
     48 x          4.505875      4.612537     0.106662    Cartesian    2.37
     48 y          4.505875      4.612537     0.106662    Cartesian    2.37
     48 z          4.505875      4.630983     0.125108    Cartesian    2.78
     49 x          2.252937      2.252937     0.000000    Cartesian    0.00
     49 y          2.252937      2.252937     0.000000    Cartesian    0.00
     49 z          6.758812      6.799756     0.040943    Cartesian    0.61
     50 x          6.758812      6.762262     0.003450    Cartesian    0.05
     50 y          6.758812      6.762262     0.003450    Cartesian    0.05
     50 z         -2.252937     -2.260052    -0.007114    Cartesian    0.32
     51 x          4.505875      4.531048     0.025173    Cartesian    0.56
     51 y          9.011750      9.028262     0.016512    Cartesian    0.18
     51 z          0.000000      0.000000     0.000000    Cartesian    0.00
     52 x          2.252937      2.252937     0.000000    Cartesian    0.00
     52 y          6.758812      6.749278    -0.009535    Cartesian   -0.14
     52 z          6.758812      6.728884    -0.029928    Cartesian   -0.44
     53 x          4.505875      4.541712     0.035837    Cartesian    0.80
     53 y          9.011750      9.069567     0.057817    Cartesian    0.64
     53 z          4.505875      4.517556     0.011681    Cartesian    0.26
     54 x          2.252937      2.252937     0.000000    Cartesian    0.00
     54 y         11.264687     11.223132    -0.041555    Cartesian   -0.37
     54 z         -2.252937     -2.249112     0.003826    Cartesian   -0.17
     55 x          6.758812      6.766093     0.007281    Cartesian    0.11
     55 y          6.758812      6.766093     0.007281    Cartesian    0.11
     55 z          6.758812      6.761378     0.002565    Cartesian    0.04
     56 x          4.505875      4.477128    -0.028747    Cartesian   -0.64
     56 y          4.505875      4.477128    -0.028747    Cartesian   -0.64
     56 z          9.011750      9.015328     0.003578    Cartesian    0.04
     57 x          9.011750      9.028168     0.016418    Cartesian    0.18
     57 y          9.011750      9.028168     0.016418    Cartesian    0.18
     57 z          0.000000      0.000000     0.000000    Cartesian    0.00
     58 x          6.758812      6.758423    -0.000389    Cartesian   -0.01
     58 y         11.264687     11.265008     0.000321    Cartesian    0.00
     58 z         -2.252937     -2.251726     0.001211    Cartesian   -0.05
     59 x          9.011750      9.038460     0.026710    Cartesian    0.30
     59 y          9.011750      9.038460     0.026710    Cartesian    0.30
     59 z          4.505875      4.503490    -0.002385    Cartesian   -0.05
     60 x          2.252937      2.252937     0.000000    Cartesian    0.00
     60 y          2.252937      2.252937     0.000000    Cartesian    0.00
     60 z         11.264687     11.274766     0.010078    Cartesian    0.09
     61 x          2.252937      2.252937     0.000000    Cartesian    0.00
     61 y         11.264687     11.268166     0.003479    Cartesian    0.03
     61 z          6.758812      6.739928    -0.018885    Cartesian   -0.28
     62 x          4.505875      4.475526    -0.030349    Cartesian   -0.67
     62 y         13.517625     13.589710     0.072085    Cartesian    0.53
     62 z          0.000000      0.000000     0.000000    Cartesian    0.00
     63 x          4.505875      4.515108     0.009233    Cartesian    0.20
     63 y          9.011750      9.025483     0.013733    Cartesian    0.15
     63 z          9.011750      9.057881     0.046131    Cartesian    0.51

  Time to end of optimisation  =       22.6927 seconds

  Timing analysis for GULP :

  Task / Subroutine                                          Time (Seconds)
  Calculation of reciprocal space energy and derivatives          0.0003
  Calculation of reciprocal space energy using symmetry           0.0005
  Calculation of real space energy and derivatives                0.0020
  Calculation of real space energy using symmetry                 0.0045
  Calculation for region 1 energy and derivatives (2-b)           5.7461
  Calculation for region 2a energy                               16.6908
  Calculation for region 2b energy                                0.0003
  Calculation and manipulation of Hessian matrix                  0.1291
  Calculation of matrix inversion                                 0.0068
  Symmetry generation of equivalent positions                     0.0024

  Dump file written as Na3OCl.grs

  Job Finished at 14:37.48 30th December   2020