  Job Started  at 11:27.18  9th December   2020

  Number of CPUs =     1

  Total number of configurations input =      1

*  Input for Configuration =   1                                               *

  Formula = ClONa3

  Number of irreducible atoms/shells =       5

  Total number atoms/shells =       7

  Dimensionality = 3               :  Bulk

  Symmetry :

  Crystal family                   :  Cubic
  Crystal class  (Groth - 1921)    :  Cubic Hexakisoctahedral

  Space group (centrosymmetric)    :  P M 3 M

  Patterson group                  :  P m -3 m

  Cartesian lattice vectors (Angstroms) :

        4.504000    0.000000    0.000000
        0.000000    4.504000    0.000000
        0.000000    0.000000    4.504000

  Cell parameters (Angstroms/Degrees):

  a =       4.5040    alpha =  90.0000
  b =       4.5040    beta  =  90.0000
  c =       4.5040    gamma =  90.0000

  Initial cell volume =          91.368216 Angs**3

  Temperature of configuration =   0.00     K

  Pressure of configuration =         0.000 GPa

  Fractional coordinates of asymmetric unit :

   No.  Atomic       x           y          z         Charge      Occupancy
        Label      (Frac)      (Frac)     (Frac)        (e)         (Frac)
      1 Cl    c    0.000000    0.000000    0.000000     1.48500    1.000000
      2 O     c    0.500000    0.500000    0.500000     0.18300    1.000000
      3 Na    c    0.500000    0.500000    0.000000     1.00000    1.000000
      4 Cl    s    0.000000    0.000000    0.000000    -2.48500    1.000000
      5 O     s    0.500000    0.500000    0.500000    -2.18300    1.000000

  Constraints :

  Constraint no.      Unconstrained     Constrained    Coefficient    Offset
                         Variable         Variable
           1              Strain 1        Strain 2       1.00000      0.0000
           2              Strain 1        Strain 3       1.00000      0.0000

*  General input information                                                   *

  Species output for all configurations :

  Species    Type    Atomic    Atomic    Charge       Radii (Angs)     Library
                     Number     Mass       (e)     Cova   Ionic  VDW   Symbol
    Na       Core       11      22.99   1.000000   0.970  0.000  2.300
    O        Core        8      16.00   0.183000   0.730  0.000  1.360
    O        Shell       8       0.00  -2.183000   0.730  0.000  0.000
    Cl       Core       17      35.45   1.485000   0.990  0.000  1.650
    Cl       Shell      17       0.00  -2.485000   0.990  0.000  0.000
    Mg       Core       12      24.31   0.415000   1.100  0.000  0.000
    Mg       Shell      12       0.00   1.585000   1.100  0.000  0.000
    Ca       Core       20      40.08  -1.135000   0.990  0.000  0.000
    Ca       Shell      20       0.00   3.135000   0.990  0.000  0.000
    Sr       Core       38      87.62  -1.251000   1.120  0.000  0.000
    Sr       Shell      38       0.00   3.251000   1.120  0.000  0.000
    Ba       Core       56     137.33  -7.203000   1.340  0.000  0.000
    Ba       Shell      56       0.00   9.203000   1.340  0.000  0.000

  Lattice summation method               =    Ewald          (3-D)
                                         =    Parry          (2-D)
                                         =    Saunders et al (1-D)
  Accuracy factor for lattice sums       =   12.000

  Analytic derivatives to be used

  Time limit = Infinity

  Maximum range for interatomic potentials =    100000.000000 Angstroms

  General interatomic potentials :

Atom  Types   Potential      Parameter       Value         Units   Cutoffs(Ang)
  1     2                                                            Min /  Max
O    c O    s Spring (c-s)  Spring k 2       593.71600    eV*Ang^-2 0.000  0.800
                            Spring k 4       0.0000000    eV*Ang^-4
Cl   c Cl   s Spring (c-s)  Spring k 2       29.380000    eV*Ang^-2 0.000  0.800
                            Spring k 4       0.0000000    eV*Ang^-4
Mg   c Mg   s Spring (c-s)  Spring k 2       361.60000    eV*Ang^-2 0.000  0.800
                            Spring k 4       0.0000000    eV*Ang^-4
Ca   c Ca   s Spring (c-s)  Spring k 2       110.20000    eV*Ang^-2 0.000  0.800
                            Spring k 4       0.0000000    eV*Ang^-4
Sr   c Sr   s Spring (c-s)  Spring k 2       71.700000    eV*Ang^-2 0.000  0.800
                            Spring k 4       0.0000000    eV*Ang^-4
Ba   c Ba   s Spring (c-s)  Spring k 2       495.20000    eV*Ang^-2 0.000  0.800
                            Spring k 4       0.0000000    eV*Ang^-4
Na   c Na   c Buckingham    Buckingham A     1788.1900    eV        0.000 12.000
                            Buckingham rho  0.15900000    Ang
                            Buckingham C     0.0000000    eV*Ang^6
Na   c O    s Buckingham    Buckingham A     1226.8400    eV        0.000 12.000
                            Buckingham rho  0.30700000    Ang
                            Buckingham C     0.0000000    eV*Ang^6
Na   c Cl   s Buckingham    Buckingham A     2314.7000    eV        0.000 12.000
                            Buckingham rho  0.29000000    Ang
                            Buckingham C     0.0000000    eV*Ang^6
O    s O    s Buckingham    Buckingham A     22764.300    eV        0.000 12.000
                            Buckingham rho  0.14900000    Ang
                            Buckingham C     13.190000    eV*Ang^6
O    s Cl   s Buckingham    Buckingham A     8286.9100    eV        0.000 12.000
                            Buckingham rho  0.25900000    Ang
                            Buckingham C     62.200000    eV*Ang^6
Cl   s Cl   s Buckingham    Buckingham A     1227.2000    eV        0.000 12.000
                            Buckingham rho  0.32100000    Ang
                            Buckingham C     14.530000    eV*Ang^6
O    s Mg   s Buckingham    Buckingham A     1428.5000    eV        0.000 12.000
                            Buckingham rho  0.29450000    Ang
                            Buckingham C     0.0000000    eV*Ang^6
Mg   s Cl   s Buckingham    Buckingham A     4914.5400    eV        0.000 12.000
                            Buckingham rho  0.25700000    Ang
                            Buckingham C     0.0000000    eV*Ang^6
O    s Ca   s Buckingham    Buckingham A     1090.4000    eV        0.000 12.000
                            Buckingham rho  0.34370000    Ang
                            Buckingham C     0.0000000    eV*Ang^6
Cl   s Ca   s Buckingham    Buckingham A     2302.0000    eV        0.000 12.000
                            Buckingham rho  0.34020000    Ang
                            Buckingham C     0.0000000    eV*Ang^6
O    s Sr   s Buckingham    Buckingham A     959.10000    eV        0.000 12.000
                            Buckingham rho  0.37210000    Ang
                            Buckingham C     0.0000000    eV*Ang^6
Cl   s Sr   s Buckingham    Buckingham A     2191.0900    eV        0.000 12.000
                            Buckingham rho  0.34570000    Ang
                            Buckingham C     0.0000000    eV*Ang^6
O    s Ba   s Buckingham    Buckingham A     905.70000    eV        0.000 12.000
                            Buckingham rho  0.39760000    Ang
                            Buckingham C     0.0000000    eV*Ang^6
Cl   s Ba   s Buckingham    Buckingham A     2704.5500    eV        0.000 12.000
                            Buckingham rho  0.35280000    Ang
                            Buckingham C     0.0000000    eV*Ang^6

*  Output for configuration   1                                                *

  Components of energy :

  Interatomic potentials     =           5.13022605 eV
  Monopole - monopole (real) =         -10.03624526 eV
  Monopole - monopole (recip)=         -29.53581274 eV
  Monopole - monopole (total)=         -39.57205800 eV
  Total lattice energy       =         -34.44183194 eV
  Total lattice energy       =           -3323.1103 kJ/(mole unit cells)

  Number of variables =        1

  Maximum number of calculations  =          1000
  Maximum Hessian update interval =            10
  Maximum step size               =   1.000000000
  Maximum parameter tolerance     =   0.000010000
  Maximum function  tolerance     =   0.000010000
  Maximum gradient  tolerance     =   0.001000000
  Maximum gradient  component     =   0.010000000

  Symmetry constrained optimisation

  Symmetry used for second derivatives

  Cell parameters to be optimised using strains

  Newton-Raphson optimiser to be used

  BFGS hessian update to be used

  Lower half triangular hessian to be used

  Start of bulk optimisation :

  ** Hessian calculated **

  **** Optimisation achieved ****

  Final energy =     -34.44191447 eV
  Final Gnorm  =       0.00000000

  Components of energy :

  Interatomic potentials     =           5.09689708 eV
  Monopole - monopole (real) =         -10.02781331 eV
  Monopole - monopole (recip)=         -29.51099824 eV
  Monopole - monopole (total)=         -39.53881155 eV
  Total lattice energy       =         -34.44191447 eV
  Total lattice energy       =           -3323.1183 kJ/(mole unit cells)

  Final asymmetric unit coordinates :

   No.  Atomic        x           y           z         Radius
        Label       (Frac)      (Frac)      (Frac)       (Angs)
     1  Cl    c     0.000000    0.000000    0.000000    0.000000
     2  O     c     0.500000    0.500000    0.500000    0.000000
     3  Na    c     0.500000    0.500000    0.000000    0.000000
     4  Cl    s     0.000000    0.000000    0.000000    0.000000
     5  O     s     0.500000    0.500000    0.500000    0.000000

  Final Cartesian lattice vectors (Angstroms) :

        4.507787    0.000000    0.000000
        0.000000    4.507787    0.000000
        0.000000    0.000000    4.507787

  Final cell parameters and derivatives :

       a            4.507787 Angstrom     dE/de1(xx)     0.000000 eV/strain
       b            4.507787 Angstrom     dE/de2(yy)     0.000000 eV/strain
       c            4.507787 Angstrom     dE/de3(zz)     0.000000 eV/strain
       alpha       90.000000 Degrees      dE/de4(yz)     0.000000 eV/strain
       beta        90.000000 Degrees      dE/de5(xz)     0.000000 eV/strain
       gamma       90.000000 Degrees      dE/de6(xy)     0.000000 eV/strain

  Primitive cell volume =            91.598892 Angs**3

  Density of cell =      2.183054 g/cm**3

  Non-primitive cell volume =            91.598892 Angs**3

  Final internal derivatives :

   No.  Atomic          a             b             c           Radius
        Label          (eV)          (eV)          (eV)        (eV/Angs)
      1 Cl    c       0.000000      0.000000      0.000000      0.000000
      2 O     c       0.000000      0.000000      0.000000      0.000000
      3 Na    c       0.000000      0.000000      0.000000      0.000000
      4 Cl    s       0.000000      0.000000      0.000000      0.000000
      5 O     s       0.000000      0.000000      0.000000      0.000000
  Maximum abs         0.000000      0.000000      0.000000      0.000000

  Comparison of initial and final structures :

[...]
     67 y          4.507787      4.520369     0.012582    Cartesian    0.28
     67 z         13.523362     13.559367     0.036006    Cartesian    0.27
     68 x          4.507787      4.504499    -0.003288    Cartesian   -0.07
     68 y         15.777255     15.742554    -0.034702    Cartesian   -0.22
     68 z         -2.253894     -2.292655    -0.038762    Cartesian    1.72
     69 x          2.253894      2.253894     0.000000    Cartesian    0.00
     69 y          6.761681      6.661821    -0.099860    Cartesian   -1.48
     69 z         13.523362     13.518956    -0.004406    Cartesian   -0.03
     70 x          2.253894      2.253894     0.000000    Cartesian    0.00
     70 y         15.777255     15.540268    -0.236988    Cartesian   -1.50
     70 z          4.507787      4.506109    -0.001678    Cartesian   -0.04
     71 x          6.761681      6.702505    -0.059176    Cartesian   -0.88
     71 y         15.777255     15.769499    -0.007757    Cartesian   -0.05
     71 z          0.000000      0.000000     0.000000    Cartesian    0.00
     72 x          2.253894      2.253894     0.000000    Cartesian    0.00
     72 y         11.269468     11.241088    -0.028380    Cartesian   -0.25
     72 z         11.269468     11.257921    -0.011547    Cartesian   -0.10
     73 x         11.269468     11.271138     0.001670    Cartesian    0.01
     73 y         11.269468     11.271138     0.001670    Cartesian    0.01
     73 z          6.761681      6.761621    -0.000059    Cartesian   -0.00
     74 x          6.761681      6.760467    -0.001214    Cartesian   -0.02
     74 y         15.777255     15.776041    -0.001214    Cartesian   -0.01
     74 z         -2.253894     -2.256198    -0.002304    Cartesian    0.10
     75 x          4.507787      4.502279    -0.005508    Cartesian   -0.12
     75 y         13.523362     13.545969     0.022607    Cartesian    0.17
     75 z          9.015574      9.025054     0.009479    Cartesian    0.11
     76 x          4.507787      4.505226    -0.002561    Cartesian   -0.06
     76 y         11.269468     11.279504     0.010036    Cartesian    0.09
     76 z         11.269468     11.238806    -0.030662    Cartesian   -0.27
     77 x         13.523362     13.522824    -0.000538    Cartesian   -0.00
     77 y         11.269468     11.265488    -0.003980    Cartesian   -0.04
     77 z         -2.253894     -2.259338    -0.005444    Cartesian    0.24
     78 x          6.761681      6.799378     0.037697    Cartesian    0.56
     78 y         15.777255     15.783231     0.005976    Cartesian    0.04
     78 z          4.507787      4.506546    -0.001241    Cartesian   -0.03
     79 x          6.761681      6.735228    -0.026453    Cartesian   -0.39
     79 y         -2.253894     -2.227441     0.026453    Cartesian   -1.17
     79 z         13.523362     13.518222    -0.005140    Cartesian   -0.04
     80 x          6.761681      6.761516    -0.000165    Cartesian   -0.00
     80 y         11.269468     11.271186     0.001718    Cartesian    0.02
     80 z         11.269468     11.268635    -0.000834    Cartesian   -0.01
     81 x          2.253894      2.253894     0.000000    Cartesian    0.00
     81 y         15.777255     15.750211    -0.027045    Cartesian   -0.17
     81 z          6.761681      6.767705     0.006024    Cartesian    0.09
     82 x          4.507787      4.492718    -0.015069    Cartesian   -0.33
     82 y          9.015574      9.025123     0.009548    Cartesian    0.11
     82 z         13.523362     13.532893     0.009531    Cartesian    0.07
     83 x          4.507787      4.506127    -0.001660    Cartesian   -0.04
     83 y         15.777255     15.782274     0.005019    Cartesian    0.03
     83 z          6.761681      6.720594    -0.041087    Cartesian   -0.61
     84 x          9.015574      9.013475    -0.002100    Cartesian   -0.02
     84 y         15.777255     15.765992    -0.011264    Cartesian   -0.07
     84 z         -2.253894     -2.217732     0.036161    Cartesian   -1.60
     85 x         11.269468     11.267063    -0.002405    Cartesian   -0.02
     85 y         11.269468     11.267063    -0.002405    Cartesian   -0.02
     85 z          9.015574      9.014005    -0.001570    Cartesian   -0.02
     86 x          2.253894      2.253894     0.000000    Cartesian    0.00
     86 y          2.253894      2.253894     0.000000    Cartesian    0.00
     86 z         15.777255     15.779600     0.002345    Cartesian    0.01
     87 x          6.761681      6.764476     0.002795    Cartesian    0.04
     87 y         15.777255     15.782491     0.005236    Cartesian    0.03
     87 z          6.761681      6.759518    -0.002163    Cartesian   -0.03
     88 x          4.507787      4.520165     0.012378    Cartesian    0.27
     88 y        -13.523362    -13.533444    -0.010082    Cartesian    0.07
     88 z          0.000000      0.000000     0.000000    Cartesian    0.00
     89 x          9.015574      9.023370     0.007795    Cartesian    0.09
     89 y         13.523362     13.533109     0.009747    Cartesian    0.07
     89 z          9.015574      9.027847     0.012273    Cartesian    0.14
     90 x         13.523362     13.541407     0.018045    Cartesian    0.13
     90 y         13.523362     13.541407     0.018045    Cartesian    0.13
     90 z          0.000000      0.000000     0.000000    Cartesian    0.00
     91 x          4.507787      4.504667    -0.003120    Cartesian   -0.07
     91 y          2.253894      2.253894     0.000000    Cartesian    0.00
     91 z         15.777255     15.781749     0.004494    Cartesian    0.03
     92 x         13.523362     13.503269    -0.020092    Cartesian   -0.15
     92 y          2.253894      2.253894     0.000000    Cartesian    0.00
     92 z         11.269468     11.199327    -0.070141    Cartesian   -0.62
     93 x        -13.523362    -13.510008     0.013354    Cartesian   -0.10
     93 y          2.253894      2.253894     0.000000    Cartesian    0.00
     93 z         -2.253894     -2.414869    -0.160975    Cartesian    7.14
     94 x          9.015574      9.014698    -0.000877    Cartesian   -0.01
     94 y         11.269468     11.263678    -0.005790    Cartesian   -0.05
     94 z         11.269468     11.262270    -0.007198    Cartesian   -0.06
     95 x         13.523362     13.522707    -0.000655    Cartesian   -0.00
     95 y         11.269468     11.265945    -0.003523    Cartesian   -0.03
     95 z          6.761681      6.757521    -0.004160    Cartesian   -0.06
     96 x          2.253894      2.253894     0.000000    Cartesian    0.00
     96 y          2.253894      2.253894     0.000000    Cartesian    0.00
     96 z         -2.253894     -2.319849    -0.065956    Cartesian    2.93
     97 x          4.507787      4.620879     0.113092    Cartesian    2.51
     97 y          4.507787      4.620879     0.113092    Cartesian    2.51
     97 z          0.000000      0.000000     0.000000    Cartesian    0.00
     98 x          2.253894      2.253894     0.000000    Cartesian    0.00
     98 y         -2.253894     -2.223770     0.030123    Cartesian   -1.34
     98 z         -2.253894     -2.243760     0.010134    Cartesian   -0.45
     99 x          4.507787      4.620389     0.112602    Cartesian    2.50
     99 y          4.507787      4.620389     0.112602    Cartesian    2.50
     99 z          4.507787      4.617647     0.109860    Cartesian    2.44
    100 x         -2.253894     -2.257568    -0.003674    Cartesian    0.16
    100 y         -2.253894     -2.257568    -0.003674    Cartesian    0.16
    100 z         -2.253894     -2.252042     0.001851    Cartesian   -0.08
    101 x          2.253894      2.253894     0.000000    Cartesian    0.00
    101 y          2.253894      2.253894     0.000000    Cartesian    0.00
    101 z          6.761681      6.811187     0.049506    Cartesian    0.73
    102 x          4.507787      4.541564     0.033777    Cartesian    0.75
    102 y          9.015574      9.029704     0.014130    Cartesian    0.16
    102 z          0.000000      0.000000     0.000000    Cartesian    0.00
    103 x          2.253894      2.253894     0.000000    Cartesian    0.00
    103 y         -2.253894     -2.254226    -0.000332    Cartesian    0.01
    103 z          6.761681      6.712348    -0.049333    Cartesian   -0.73
    104 x          4.507787      4.553351     0.045564    Cartesian    1.01
    104 y          9.015574      9.055656     0.040081    Cartesian    0.44
    104 z          4.507787      4.506080    -0.001707    Cartesian   -0.04
    105 x          2.253894      2.253894     0.000000    Cartesian    0.00
    105 y         11.269468     11.245778    -0.023690    Cartesian   -0.21
    105 z         -2.253894     -2.246960     0.006934    Cartesian   -0.31
    106 x          6.761681      6.774440     0.012760    Cartesian    0.19
    106 y          6.761681      6.774440     0.012760    Cartesian    0.19
    106 z          6.761681      6.765255     0.003574    Cartesian    0.05
    107 x          4.507787      4.462401    -0.045386    Cartesian   -1.01
    107 y          4.507787      4.462401    -0.045386    Cartesian   -1.01
    107 z          9.015574      9.041895     0.026321    Cartesian    0.29
    108 x          9.015574      9.041782     0.026208    Cartesian    0.29
    108 y          9.015574      9.041782     0.026208    Cartesian    0.29
    108 z          0.000000      0.000000     0.000000    Cartesian    0.00
    109 x         11.269468     11.270390     0.000922    Cartesian    0.01
    109 y         -2.253894     -2.257190    -0.003297    Cartesian    0.15
    109 z         -2.253894     -2.251476     0.002418    Cartesian   -0.11
    110 x          9.015574      9.043937     0.028363    Cartesian    0.31
    110 y          9.015574      9.043937     0.028363    Cartesian    0.31
    110 z          4.507787      4.527258     0.019471    Cartesian    0.43
    111 x          2.253894      2.253894     0.000000    Cartesian    0.00
    111 y          2.253894      2.253894     0.000000    Cartesian    0.00
    111 z         11.269468     11.264131    -0.005337    Cartesian   -0.05
    112 x          2.253894      2.253894     0.000000    Cartesian    0.00
    112 y         11.269468     11.254655    -0.014813    Cartesian   -0.13
    112 z          6.761681      6.731010    -0.030671    Cartesian   -0.45
    113 x          4.507787      4.538422     0.030635    Cartesian    0.68
    113 y         13.523362     13.527089     0.003728    Cartesian    0.03
    113 z          0.000000      0.000000     0.000000    Cartesian    0.00
    114 x          4.507787      4.534345     0.026557    Cartesian    0.59
    114 y          9.015574      9.017097     0.001523    Cartesian    0.02
    114 z          9.015574      9.042676     0.027101    Cartesian    0.30
    115 x          2.253894      2.253894     0.000000    Cartesian    0.00
    115 y          6.761681      6.771964     0.010284    Cartesian    0.15
    115 z         11.269468     11.254076    -0.015392    Cartesian   -0.14
    116 x          6.761681      6.760993    -0.000688    Cartesian   -0.01
    116 y         11.269468     11.271905     0.002437    Cartesian    0.02
    116 z          6.761681      6.762428     0.000747    Cartesian    0.01
    117 x          4.507787      4.532768     0.024981    Cartesian    0.55
    117 y         13.523362     13.540065     0.016703    Cartesian    0.12
    117 z          4.507787      4.513557     0.005770    Cartesian    0.13
    118 x         -2.253894     -2.248079     0.005814    Cartesian   -0.26
    118 y         -2.253894     -2.248079     0.005814    Cartesian   -0.26
    118 z         11.269468     11.263828    -0.005640    Cartesian   -0.05
    119 x         11.269468     11.271253     0.001785    Cartesian    0.02
    119 y         11.269468     11.271253     0.001785    Cartesian    0.02
    119 z         -2.253894     -2.254204    -0.000310    Cartesian    0.01
    120 x          9.015574      9.034323     0.018749    Cartesian    0.21
    120 y         13.523362     13.535846     0.012485    Cartesian    0.09
    120 z          0.000000      0.000000     0.000000    Cartesian    0.00
    121 x          9.015574      9.022458     0.006883    Cartesian    0.08
    121 y          9.015574      9.022458     0.006883    Cartesian    0.08
    121 z          9.015574      9.020752     0.005177    Cartesian    0.06
    122 x          2.253894      2.253894     0.000000    Cartesian    0.00
    122 y         15.777255     15.756829    -0.020426    Cartesian   -0.13
    122 z         -2.253894     -2.237984     0.015910    Cartesian   -0.71
    123 x          9.015574      9.020473     0.004898    Cartesian    0.05
    123 y         13.523362     13.535687     0.012325    Cartesian    0.09
    123 z          4.507787      4.511746     0.003959    Cartesian    0.09
    124 x          4.507787      4.522577     0.014789    Cartesian    0.33
    124 y          4.507787      4.522577     0.014789    Cartesian    0.33
    124 z         13.523362     13.565162     0.041800    Cartesian    0.31
    125 x          2.253894      2.253894     0.000000    Cartesian    0.00
    125 y         11.269468     11.241042    -0.028426    Cartesian   -0.25
    125 z         11.269468     11.257962    -0.011506    Cartesian   -0.10
    126 x         11.269468     11.271140     0.001672    Cartesian    0.01
    126 y         11.269468     11.271140     0.001672    Cartesian    0.01
    126 z          6.761681      6.761618    -0.000062    Cartesian   -0.00
    127 x          6.761681      6.760468    -0.001212    Cartesian   -0.02
    127 y         15.777255     15.776033    -0.001222    Cartesian   -0.01
    127 z         -2.253894     -2.256209    -0.002316    Cartesian    0.10
    128 x          4.507787      4.498126    -0.009661    Cartesian   -0.21
    128 y         13.523362     13.549815     0.026453    Cartesian    0.20
    128 z          9.015574      9.024177     0.008602    Cartesian    0.10
    129 x          6.761681      6.761520    -0.000161    Cartesian   -0.00
    129 y         11.269468     11.271193     0.001725    Cartesian    0.02
    129 z         11.269468     11.268629    -0.000839    Cartesian   -0.01
    130 x          2.253894      2.253894     0.000000    Cartesian    0.00
    130 y         15.777255     15.750182    -0.027073    Cartesian   -0.17
    130 z          6.761681      6.767764     0.006083    Cartesian    0.09
    131 x          4.507787      4.489263    -0.018524    Cartesian   -0.41
    131 y          9.015574      9.026982     0.011407    Cartesian    0.13
    131 z         13.523362     13.531675     0.008313    Cartesian    0.06
    132 x          2.253894      2.253894     0.000000    Cartesian    0.00
    132 y          2.253894      2.253894     0.000000    Cartesian    0.00
    132 z         15.777255     15.779628     0.002372    Cartesian    0.02
    133 x          6.761681      6.764486     0.002805    Cartesian    0.04
    133 y         15.777255     15.782501     0.005246    Cartesian    0.03
    133 z          6.761681      6.759506    -0.002175    Cartesian   -0.03
    134 x          4.507787      4.519176     0.011388    Cartesian    0.25
    134 y        -13.523362    -13.530521    -0.007160    Cartesian    0.05
    134 z          0.000000      0.000000     0.000000    Cartesian    0.00
    135 x          9.015574      9.024387     0.008812    Cartesian    0.10
    135 y         13.523362     13.533907     0.010545    Cartesian    0.08
    135 z          9.015574      9.029370     0.013796    Cartesian    0.15
    136 x         13.523362     13.543141     0.019779    Cartesian    0.15
    136 y         13.523362     13.543141     0.019779    Cartesian    0.15
    136 z          0.000000      0.000000     0.000000    Cartesian    0.00

  Time to end of optimisation  =       20.2406 seconds

  Timing analysis for GULP :

  Task / Subroutine                                          Time (Seconds)
  Calculation of reciprocal space energy and derivatives          0.0002
  Calculation of reciprocal space energy using symmetry           0.0003
  Calculation of real space energy and derivatives                0.0012
  Calculation of real space energy using symmetry                 0.0028
  Calculation for region 1 energy and derivatives (2-b)          10.0127
  Calculation for region 2a energy                                9.8011
  Calculation and manipulation of Hessian matrix                  0.2727
  Calculation of matrix inversion                                 0.0115
  Symmetry generation of equivalent positions                     0.0015

  Dump file written as Na3OCl.grs

  Job Finished at 11:27.39  9th December   2020