  Job Started  at 18:06.30 30th November   2020

  Number of CPUs =     1

  Total number of configurations input =      1

*  Input for Configuration =   1                                               *

  Formula = ClONa3

  Number of irreducible atoms/shells =       5

  Total number atoms/shells =       7

  Dimensionality = 3               :  Bulk

  Symmetry :

  Crystal family                   :  Cubic
  Crystal class  (Groth - 1921)    :  Cubic Hexakisoctahedral

  Space group (centrosymmetric)    :  P M 3 M

  Patterson group                  :  P m -3 m

  Cartesian lattice vectors (Angstroms) :

        4.504000    0.000000    0.000000
        0.000000    4.504000    0.000000
        0.000000    0.000000    4.504000

  Cell parameters (Angstroms/Degrees):

  a =       4.5040    alpha =  90.0000
  b =       4.5040    beta  =  90.0000
  c =       4.5040    gamma =  90.0000

  Initial cell volume =          91.368216 Angs**3

  Temperature of configuration =   0.00     K

  Pressure of configuration =         0.000 GPa

  Fractional coordinates of asymmetric unit :

   No.  Atomic       x           y          z         Charge      Occupancy
        Label      (Frac)      (Frac)     (Frac)        (e)         (Frac)
      1 Cl    c    0.000000    0.000000    0.000000     1.48500    1.000000
      2 O     c    0.500000    0.500000    0.500000     0.18300    1.000000
      3 Na    c    0.500000    0.500000    0.000000     1.00000    1.000000
      4 Cl    s    0.000000    0.000000    0.000000    -2.48500    1.000000
      5 O     s    0.500000    0.500000    0.500000    -2.18300    1.000000

  Constraints :

  Constraint no.      Unconstrained     Constrained    Coefficient    Offset
                         Variable         Variable
           1              Strain 1        Strain 2       1.00000      0.0000
           2              Strain 1        Strain 3       1.00000      0.0000

*  General input information                                                   *

  Species output for all configurations :

  Species    Type    Atomic    Atomic    Charge       Radii (Angs)     Library
                     Number     Mass       (e)     Cova   Ionic  VDW   Symbol
    Na       Core       11      22.99   1.000000   0.970  0.000  2.300
    O        Core        8      16.00   0.183000   0.730  0.000  1.360
    O        Shell       8       0.00  -2.183000   0.730  0.000  1.360
    Cl       Core       17      35.45   1.485000   0.990  0.000  1.650
    Cl       Shell      17       0.00  -2.485000   0.990  0.000  1.650
    Mg       Core       12      24.31   0.415000   1.100  0.000  0.000
    Mg       Shell      12       0.00   1.585000   1.100  0.000  0.000
    Ca       Core       20      40.08  -1.135000   0.990  0.000  0.000
    Ca       Shell      20       0.00   3.135000   0.990  0.000  0.000
    Sr       Core       38      87.62  -1.251000   1.120  0.000  0.000
    Sr       Shell      38       0.00   3.251000   1.120  0.000  0.000
    Ba       Core       56     137.33  -7.203000   1.340  0.000  0.000
    Ba       Shell      56       0.00   9.203000   1.340  0.000  0.000

  Lattice summation method               =    Ewald          (3-D)
                                         =    Parry          (2-D)
                                         =    Saunders et al (1-D)
  Accuracy factor for lattice sums       =   12.000

  Analytic derivatives to be used

  Time limit = Infinity

  Maximum range for interatomic potentials =    100000.000000 Angstroms

  General interatomic potentials :

Atom  Types   Potential      Parameter       Value         Units   Cutoffs(Ang)
  1     2                                                            Min /  Max
O    c O    s Spring (c-s)  Spring k 2       593.71600    eV*Ang^-2 0.000  0.800
                            Spring k 4       0.0000000    eV*Ang^-4
Cl   c Cl   s Spring (c-s)  Spring k 2       29.380000    eV*Ang^-2 0.000  0.800
                            Spring k 4       0.0000000    eV*Ang^-4
Mg   c Mg   s Spring (c-s)  Spring k 2       361.60000    eV*Ang^-2 0.000  0.800
                            Spring k 4       0.0000000    eV*Ang^-4
Ca   c Ca   s Spring (c-s)  Spring k 2       110.20000    eV*Ang^-2 0.000  0.800
                            Spring k 4       0.0000000    eV*Ang^-4
Sr   c Sr   s Spring (c-s)  Spring k 2       71.700000    eV*Ang^-2 0.000  0.800
                            Spring k 4       0.0000000    eV*Ang^-4
Ba   c Ba   s Spring (c-s)  Spring k 2       495.20000    eV*Ang^-2 0.000  0.800
                            Spring k 4       0.0000000    eV*Ang^-4
Na   c Na   c Buckingham    Buckingham A     1788.1900    eV        0.000 12.000
                            Buckingham rho  0.15900000    Ang
                            Buckingham C     0.0000000    eV*Ang^6
Na   c O    s Buckingham    Buckingham A     1226.8400    eV        0.000 12.000
                            Buckingham rho  0.30700000    Ang
                            Buckingham C     0.0000000    eV*Ang^6
Na   c Cl   s Buckingham    Buckingham A     2314.7000    eV        0.000 12.000
                            Buckingham rho  0.29000000    Ang
                            Buckingham C     0.0000000    eV*Ang^6
O    s O    s Buckingham    Buckingham A     22764.300    eV        0.000 12.000
                            Buckingham rho  0.14900000    Ang
                            Buckingham C     13.190000    eV*Ang^6
O    s Cl   s Buckingham    Buckingham A     8286.9100    eV        0.000 12.000
                            Buckingham rho  0.25900000    Ang
                            Buckingham C     62.200000    eV*Ang^6
Cl   s Cl   s Buckingham    Buckingham A     1227.2000    eV        0.000 12.000
                            Buckingham rho  0.32100000    Ang
                            Buckingham C     14.530000    eV*Ang^6
O    s Mg   s Buckingham    Buckingham A     1428.5000    eV        0.000 12.000
                            Buckingham rho  0.29450000    Ang
                            Buckingham C     0.0000000    eV*Ang^6
Mg   s Cl   s Buckingham    Buckingham A     4914.5400    eV        0.000 12.000
                            Buckingham rho  0.25700000    Ang
                            Buckingham C     0.0000000    eV*Ang^6
O    s Ca   s Buckingham    Buckingham A     1090.4000    eV        0.000 12.000
                            Buckingham rho  0.34370000    Ang
                            Buckingham C     0.0000000    eV*Ang^6
Cl   s Ca   s Buckingham    Buckingham A     2302.0000    eV        0.000 12.000
                            Buckingham rho  0.34020000    Ang
                            Buckingham C     0.0000000    eV*Ang^6
O    s Sr   s Buckingham    Buckingham A     959.10000    eV        0.000 12.000
                            Buckingham rho  0.37210000    Ang
                            Buckingham C     0.0000000    eV*Ang^6
Cl   s Sr   s Buckingham    Buckingham A     2191.0900    eV        0.000 12.000
                            Buckingham rho  0.34570000    Ang
                            Buckingham C     0.0000000    eV*Ang^6
O    s Ba   s Buckingham    Buckingham A     905.70000    eV        0.000 12.000
                            Buckingham rho  0.39760000    Ang
                            Buckingham C     0.0000000    eV*Ang^6
Cl   s Ba   s Buckingham    Buckingham A     2704.5500    eV        0.000 12.000
                            Buckingham rho  0.35280000    Ang
                            Buckingham C     0.0000000    eV*Ang^6

*  Output for configuration   1                                                *

  Components of energy :

  Interatomic potentials     =           5.13022605 eV
  Monopole - monopole (real) =         -10.03624526 eV
  Monopole - monopole (recip)=         -29.53581274 eV
  Monopole - monopole (total)=         -39.57205800 eV
  Total lattice energy       =         -34.44183194 eV
  Total lattice energy       =           -3323.1103 kJ/(mole unit cells)

  Number of variables =        1

  Maximum number of calculations  =          1000
  Maximum Hessian update interval =            10
  Maximum step size               =   1.000000000
  Maximum parameter tolerance     =   0.000010000
  Maximum function  tolerance     =   0.000010000
  Maximum gradient  tolerance     =   0.001000000
  Maximum gradient  component     =   0.010000000

  Symmetry constrained optimisation

  Symmetry used for second derivatives

  Cell parameters to be optimised using strains

  Newton-Raphson optimiser to be used

  BFGS hessian update to be used

  Lower half triangular hessian to be used

  Start of bulk optimisation :

  ** Hessian calculated **

  **** Optimisation achieved ****

  Final energy =     -34.44191447 eV
  Final Gnorm  =       0.00000000

  Components of energy :

  Interatomic potentials     =           5.09689708 eV
  Monopole - monopole (real) =         -10.02781331 eV
  Monopole - monopole (recip)=         -29.51099824 eV
  Monopole - monopole (total)=         -39.53881155 eV
  Total lattice energy       =         -34.44191447 eV
  Total lattice energy       =           -3323.1183 kJ/(mole unit cells)

  Final asymmetric unit coordinates :

   No.  Atomic        x           y           z         Radius
        Label       (Frac)      (Frac)      (Frac)       (Angs)
     1  Cl    c     0.000000    0.000000    0.000000    0.000000
     2  O     c     0.500000    0.500000    0.500000    0.000000
     3  Na    c     0.500000    0.500000    0.000000    0.000000
     4  Cl    s     0.000000    0.000000    0.000000    0.000000
     5  O     s     0.500000    0.500000    0.500000    0.000000

  Final Cartesian lattice vectors (Angstroms) :

        4.507787    0.000000    0.000000
        0.000000    4.507787    0.000000
        0.000000    0.000000    4.507787

  Final cell parameters and derivatives :

       a            4.507787 Angstrom     dE/de1(xx)     0.000000 eV/strain
       b            4.507787 Angstrom     dE/de2(yy)     0.000000 eV/strain
       c            4.507787 Angstrom     dE/de3(zz)     0.000000 eV/strain
       alpha       90.000000 Degrees      dE/de4(yz)     0.000000 eV/strain
       beta        90.000000 Degrees      dE/de5(xz)     0.000000 eV/strain
       gamma       90.000000 Degrees      dE/de6(xy)     0.000000 eV/strain

  Primitive cell volume =            91.598892 Angs**3

  Density of cell =      2.183054 g/cm**3

  Non-primitive cell volume =            91.598892 Angs**3

  Final internal derivatives :

   No.  Atomic          a             b             c           Radius
        Label          (eV)          (eV)          (eV)        (eV/Angs)
      1 Cl    c       0.000000      0.000000      0.000000      0.000000
      2 O     c       0.000000      0.000000      0.000000      0.000000
      3 Na    c       0.000000      0.000000      0.000000      0.000000
      4 Cl    s       0.000000      0.000000      0.000000      0.000000
      5 O     s       0.000000      0.000000      0.000000      0.000000
  Maximum abs         0.000000      0.000000      0.000000      0.000000

  Comparison of initial and final structures :

[...]
    664 y         -4.507787     -4.520191    -0.012403    Cartesian    0.28
    664 z         13.523362     13.545938     0.022576    Cartesian    0.17
    665 x         13.523362     13.564488     0.041127    Cartesian    0.30
    665 y          0.000000     -0.032738    -0.032738    Cartesian    0.00
    665 z          9.015574      9.043905     0.028331    Cartesian    0.31
    666 x         13.523362     13.560266     0.036904    Cartesian    0.27
    666 y          9.015574      8.962250    -0.053325    Cartesian   -0.59
    666 z          0.000000     -0.014105    -0.014105    Cartesian    0.00
    667 x         11.269468     11.277462     0.007994    Cartesian    0.07
    667 y         11.269468     11.234818    -0.034650    Cartesian   -0.31
    667 z         -2.253894     -2.254164    -0.000271    Cartesian    0.01
    668 x         11.269468     11.252835    -0.016633    Cartesian   -0.15
    668 y         -2.253894     -2.241872     0.012022    Cartesian   -0.53
    668 z         11.269468     11.253561    -0.015907    Cartesian   -0.14
    669 x         15.777255     15.777394     0.000138    Cartesian    0.00
    669 y          2.253894      2.249414    -0.004479    Cartesian   -0.20
    669 z         -2.253894     -2.249217     0.004677    Cartesian   -0.21
    670 x         15.777255     15.766891    -0.010364    Cartesian   -0.07
    670 y         -2.253894     -2.226420     0.027473    Cartesian   -1.22
    670 z          2.253894      2.257098     0.003205    Cartesian    0.14
    671 x          9.015574      9.030746     0.015172    Cartesian    0.17
    671 y         13.523362     13.583386     0.060024    Cartesian    0.44
    671 z          0.000000     -0.008030    -0.008030    Cartesian    0.00
    672 x         13.523362     13.567048     0.043687    Cartesian    0.32
    672 y          4.507787      4.543631     0.035844    Cartesian    0.80
    672 z          9.015574      9.000651    -0.014923    Cartesian   -0.17
    673 x         13.523362     13.548582     0.025220    Cartesian    0.19
    673 y          9.015574      9.019041     0.003467    Cartesian    0.04
    673 z          4.507787      4.461255    -0.046532    Cartesian   -1.03
    674 x          9.015574      9.026558     0.010984    Cartesian    0.12
    674 y          0.000000      0.026773     0.026773    Cartesian    0.00
    674 z         13.523362     13.548454     0.025093    Cartesian    0.19
    675 x          6.761681      6.760552    -0.001129    Cartesian   -0.02
    675 y        -11.269468    -11.259416     0.010052    Cartesian   -0.09
    675 z          6.761681      6.731114    -0.030567    Cartesian   -0.45
    676 x          2.253894      2.253894     0.000000    Cartesian    0.00
    676 y         11.269468     11.273553     0.004085    Cartesian    0.04
    676 z         11.269468     11.237323    -0.032146    Cartesian   -0.29
    677 x          6.761681      6.771128     0.009447    Cartesian    0.14
    677 y          6.761681      6.774229     0.012548    Cartesian    0.19
    677 z        -11.269468    -11.251054     0.018414    Cartesian   -0.16
    678 x         11.269468     11.266421    -0.003047    Cartesian   -0.03
    678 y         -6.761681     -6.728854     0.032827    Cartesian   -0.49
    678 z         -6.761681     -6.758898     0.002783    Cartesian   -0.04
    679 x         15.777255     15.777146    -0.000110    Cartesian   -0.00
    679 y         -2.253894     -2.244766     0.009127    Cartesian   -0.40
    679 z         -2.253894     -2.243886     0.010008    Cartesian   -0.44
    680 x          9.015574      9.045979     0.030405    Cartesian    0.34
    680 y         13.523362     13.557060     0.033698    Cartesian    0.25
    680 z          4.507787      4.517115     0.009328    Cartesian    0.21
    681 x          4.507787      4.510066     0.002279    Cartesian    0.05
    681 y         -9.015574     -9.015060     0.000514    Cartesian   -0.01
    681 z         -9.015574     -9.036319    -0.020745    Cartesian    0.23
    682 x          9.015574      9.019810     0.004235    Cartesian    0.05
    682 y          4.507787      4.520477     0.012689    Cartesian    0.28
    682 z         13.523362     13.577490     0.054128    Cartesian    0.40
    683 x          9.015574      9.015084    -0.000490    Cartesian   -0.01
    683 y          9.015574      9.061634     0.046059    Cartesian    0.51
    683 z         -9.015574     -9.055502    -0.039927    Cartesian    0.44
    684 x          9.015574      9.047450     0.031876    Cartesian    0.35
    684 y         -9.015574     -9.025084    -0.009509    Cartesian    0.11
    684 z          9.015574      9.032777     0.017203    Cartesian    0.19
    685 x          2.253894      2.253894     0.000000    Cartesian    0.00
    685 y          2.253894      2.234096    -0.019797    Cartesian   -0.88
    685 z         15.777255     15.752950    -0.024305    Cartesian   -0.15
    686 x          2.253894      2.253894     0.000000    Cartesian    0.00
    686 y         15.777255     15.765489    -0.011766    Cartesian   -0.07
    686 z          2.253894      2.271368     0.017474    Cartesian    0.78
    687 x          2.253894      2.253894     0.000000    Cartesian    0.00
    687 y         -6.761681     -6.735353     0.026328    Cartesian   -0.39
    687 z        -11.269468    -11.272687    -0.003219    Cartesian    0.03
    688 x          2.253894      2.253894     0.000000    Cartesian    0.00
    688 y        -11.269468    -11.244528     0.024940    Cartesian   -0.22
    688 z         -6.761681     -6.768174    -0.006493    Cartesian    0.10
    689 x         11.269468     11.266165    -0.003303    Cartesian   -0.03
    689 y          6.761681      6.764326     0.002645    Cartesian    0.04
    689 z         11.269468     11.249891    -0.019577    Cartesian   -0.17
    690 x         11.269468     11.268843    -0.000625    Cartesian   -0.01
    690 y         11.269468     11.257115    -0.012353    Cartesian   -0.11
    690 z          6.761681      6.741110    -0.020571    Cartesian   -0.30
    691 x         15.777255     15.777882     0.000626    Cartesian    0.00
    691 y          2.253894      2.262999     0.009106    Cartesian    0.40
    691 z          6.761681      6.734484    -0.027196    Cartesian   -0.40
    692 x         15.777255     15.771585    -0.005670    Cartesian   -0.04
    692 y          6.761681      6.763319     0.001638    Cartesian    0.02
    692 z          2.253894      2.245176    -0.008717    Cartesian   -0.39
    693 x          4.507787      4.466183    -0.041605    Cartesian   -0.92
    693 y          0.000000      0.005048     0.005048    Cartesian    0.00
    693 z        -13.523362    -13.523733    -0.000372    Cartesian    0.00
    694 x          4.507787      4.561138     0.053351    Cartesian    1.18
    694 y        -13.523362    -13.543842    -0.020481    Cartesian    0.15
    694 z          0.000000     -0.010936    -0.010936    Cartesian    0.00
    695 x         13.523362     13.539751     0.016390    Cartesian    0.12
    695 y          9.015574      9.025241     0.009667    Cartesian    0.11
    695 z         -4.507787     -4.527512    -0.019725    Cartesian    0.44
    696 x         13.523362     13.567734     0.044372    Cartesian    0.33
    696 y         -4.507787     -4.508446    -0.000659    Cartesian    0.01
    696 z          9.015574      8.996108    -0.019466    Cartesian   -0.22
    697 x          4.507787      4.503965    -0.003822    Cartesian   -0.08
    697 y          9.015574      9.032126     0.016551    Cartesian    0.18
    697 z         13.523362     13.518174    -0.005187    Cartesian   -0.04
    698 x          4.507787      4.507891     0.000104    Cartesian    0.00
    698 y         13.523362     13.541601     0.018239    Cartesian    0.13
    698 z          9.015574      8.994224    -0.021350    Cartesian   -0.24
    699 x          2.253894      2.253894     0.000000    Cartesian    0.00
    699 y         15.777255     15.762208    -0.015047    Cartesian   -0.10
    699 z         -2.253894     -2.279164    -0.025270    Cartesian    1.12
    700 x          2.253894      2.253894     0.000000    Cartesian    0.00
    700 y         -2.253894     -2.225899     0.027995    Cartesian   -1.24
    700 z         15.777255     15.761217    -0.016038    Cartesian   -0.10
    701 x          6.761681      6.761054    -0.000627    Cartesian   -0.01
    701 y         11.269468     11.249791    -0.019677    Cartesian   -0.17
    701 z         11.269468     11.267305    -0.002163    Cartesian   -0.02
    702 x         15.777255     15.783544     0.006289    Cartesian    0.04
    702 y          6.761681      6.758089    -0.003592    Cartesian   -0.05
    702 z         -2.253894     -2.221539     0.032355    Cartesian   -1.44
    703 x         15.777255     15.769979    -0.007276    Cartesian   -0.05
    703 y         -2.253894     -2.271506    -0.017613    Cartesian    0.78
    703 z          6.761681      6.751239    -0.010442    Cartesian   -0.15
    704 x          4.507787      4.536373     0.028586    Cartesian    0.63
    704 y          4.507787      4.489986    -0.017802    Cartesian   -0.39
    704 z        -13.523362    -13.522722     0.000640    Cartesian   -0.00
    705 x          4.507787      4.486269    -0.021518    Cartesian   -0.48
    705 y        -13.523362    -13.552886    -0.029524    Cartesian    0.22
    705 z          4.507787      4.511912     0.004125    Cartesian    0.09
    706 x          9.015574      9.051901     0.036326    Cartesian    0.40
    706 y         13.523362     13.549486     0.026124    Cartesian    0.19
    706 z         -4.507787     -4.523759    -0.015972    Cartesian    0.35
    707 x         13.523362     13.511552    -0.011810    Cartesian   -0.09
    707 y          0.000000     -0.021023    -0.021023    Cartesian    0.00
    707 z         -9.015574     -9.015649    -0.000074    Cartesian    0.00
    708 x         13.523362     13.558557     0.035195    Cartesian    0.26
    708 y         -9.015574     -9.025339    -0.009765    Cartesian    0.11
    708 z          0.000000     -0.010196    -0.010196    Cartesian    0.00
    709 x          9.015574      9.000361    -0.015213    Cartesian   -0.17
    709 y         -4.507787     -4.496134     0.011653    Cartesian   -0.26
    709 z         13.523362     13.559302     0.035940    Cartesian    0.27
    710 x          6.761681      6.757484    -0.004197    Cartesian   -0.06
    710 y         15.777255     15.771758    -0.005497    Cartesian   -0.03
    710 z          2.253894      2.231756    -0.022138    Cartesian   -0.98
    711 x         -2.253894     -2.257976    -0.004082    Cartesian    0.18
    711 y          2.253894      2.278128     0.024235    Cartesian    1.08
    711 z         15.777255     15.758797    -0.018458    Cartesian   -0.12
    712 x          6.761681      6.757971    -0.003710    Cartesian   -0.05
    712 y         -6.761681     -6.771184    -0.009503    Cartesian    0.14
    712 z        -11.269468    -11.240867     0.028601    Cartesian   -0.25
    713 x          6.761681      6.769689     0.008008    Cartesian    0.12
    713 y        -11.269468    -11.273501    -0.004033    Cartesian    0.04
    713 z         -6.761681     -6.737311     0.024370    Cartesian   -0.36
    714 x         11.269468     11.272518     0.003050    Cartesian    0.03
    714 y          2.253894      2.242708    -0.011186    Cartesian   -0.50
    714 z        -11.269468    -11.251557     0.017911    Cartesian   -0.16
    715 x         11.269468     11.259078    -0.010390    Cartesian   -0.09
    715 y        -11.269468    -11.252985     0.016483    Cartesian   -0.15
    715 z          2.253894      2.258668     0.004774    Cartesian    0.21
    716 x         13.523362     13.545091     0.021729    Cartesian    0.16
    716 y          4.507787      4.506370    -0.001418    Cartesian   -0.03
    716 z         -9.015574     -9.031839    -0.016264    Cartesian    0.18
    717 x         13.523362     13.535662     0.012300    Cartesian    0.09
    717 y         -9.015574     -8.986423     0.029151    Cartesian   -0.32
    717 z          4.507787      4.499316    -0.008471    Cartesian   -0.19
    718 x          2.253894      2.253894     0.000000    Cartesian    0.00
    718 y          6.761681      6.770793     0.009112    Cartesian    0.13
    718 z         15.777255     15.750786    -0.026470    Cartesian   -0.17
    719 x          2.253894      2.253894     0.000000    Cartesian    0.00
    719 y         15.777255     15.777362     0.000106    Cartesian    0.00
    719 z          6.761681      6.744491    -0.017190    Cartesian   -0.25
    720 x          6.761681      6.765873     0.004192    Cartesian    0.06
    720 y         15.777255     15.774779    -0.002476    Cartesian   -0.02
    720 z         -2.253894     -2.242473     0.011420    Cartesian   -0.51
    721 x          6.761681      6.756807    -0.004874    Cartesian   -0.07
    721 y         -2.253894     -2.260791    -0.006898    Cartesian    0.31
    721 z         15.777255     15.755283    -0.021973    Cartesian   -0.14
    722 x         11.269468     11.255881    -0.013587    Cartesian   -0.12
    722 y         -2.253894     -2.243179     0.010715    Cartesian   -0.48
    722 z        -11.269468    -11.270171    -0.000702    Cartesian    0.01
    723 x         11.269468     11.276610     0.007142    Cartesian    0.06
    723 y         -6.761681     -6.755792     0.005888    Cartesian   -0.09
    723 z         11.269468     11.246701    -0.022767    Cartesian   -0.20
    724 x         11.269468     11.281947     0.012479    Cartesian    0.11
    724 y        -11.269468    -11.239276     0.030192    Cartesian   -0.27
    724 z         -2.253894     -2.258580    -0.004686    Cartesian    0.21
    725 x         15.777255     15.777748     0.000492    Cartesian    0.00
    725 y          6.761681      6.742723    -0.018958    Cartesian   -0.28
    725 z          6.761681      6.768778     0.007097    Cartesian    0.10
    726 x         11.269468     11.262294    -0.007174    Cartesian   -0.06
    726 y         11.269468     11.265601    -0.003867    Cartesian   -0.03
    726 z         -6.761681     -6.750407     0.011274    Cartesian   -0.17
    727 x         15.777255     15.783194     0.005939    Cartesian    0.04
    727 y          2.253894      2.265372     0.011479    Cartesian    0.51
    727 z         -6.761681     -6.750407     0.011274    Cartesian   -0.17
    728 x         15.777255     15.767092    -0.010163    Cartesian   -0.06
    728 y         -6.761681     -6.766729    -0.005048    Cartesian    0.07
    728 z          2.253894      2.241831    -0.012062    Cartesian   -0.54
    729 x        -13.523362    -13.552655    -0.029293    Cartesian    0.22
    729 y          0.000000     -0.004600    -0.004600    Cartesian    0.00
    729 z          0.000000      0.031783     0.031783    Cartesian    0.00
    730 x          4.507787      4.505810    -0.001977    Cartesian   -0.04
    730 y         -4.507787     -4.504411     0.003376    Cartesian   -0.07
    730 z        -13.523362    -13.535967    -0.012605    Cartesian    0.09
    731 x          4.507787      4.512072     0.004284    Cartesian    0.10
    731 y        -13.523362    -13.531381    -0.008020    Cartesian    0.06
    731 z         -4.507787     -4.512648    -0.004861    Cartesian    0.11
    732 x          9.015574      9.029341     0.013767    Cartesian    0.15
    732 y         -9.015574     -8.995212     0.020362    Cartesian   -0.23
    732 z         -9.015574     -9.073819    -0.058244    Cartesian    0.65
    733 x         13.523362     13.542296     0.018934    Cartesian    0.14
    733 y          9.015574      9.032428     0.016853    Cartesian    0.19
    733 z          9.015574      8.975845    -0.039729    Cartesian   -0.44

  Time to end of optimisation  =      786.0967 seconds

  Timing analysis for GULP :

  Task / Subroutine                                          Time (Seconds)
  Calculation of reciprocal space energy and derivatives          0.0002
  Calculation of reciprocal space energy using symmetry           0.0004
  Calculation of real space energy and derivatives                0.0014
  Calculation of real space energy using symmetry                 0.0037
  Calculation for region 1 energy and derivatives (2-b)         444.7431
  Calculation for region 2a energy                              229.5026
  Calculation and manipulation of Hessian matrix                  1.3180
  Calculation of matrix inversion                               107.4635
  Symmetry generation of equivalent positions                     0.0019

  Dump file written as Na3OCl.grs

  Job Finished at 18:19.52 30th November   2020