  Job Started  at 18:06.31 30th November   2020

  Number of CPUs =     1

  Total number of configurations input =      1

*  Input for Configuration =   1                                               *

  Formula = ClONa3

  Number of irreducible atoms/shells =       5

  Total number atoms/shells =       7

  Dimensionality = 3               :  Bulk

  Symmetry :

  Crystal family                   :  Cubic
  Crystal class  (Groth - 1921)    :  Cubic Hexakisoctahedral

  Space group (centrosymmetric)    :  P M 3 M

  Patterson group                  :  P m -3 m

  Cartesian lattice vectors (Angstroms) :

        4.504000    0.000000    0.000000
        0.000000    4.504000    0.000000
        0.000000    0.000000    4.504000

  Cell parameters (Angstroms/Degrees):

  a =       4.5040    alpha =  90.0000
  b =       4.5040    beta  =  90.0000
  c =       4.5040    gamma =  90.0000

  Initial cell volume =          91.368216 Angs**3

  Temperature of configuration =   0.00     K

  Pressure of configuration =         0.000 GPa

  Fractional coordinates of asymmetric unit :

   No.  Atomic       x           y          z         Charge      Occupancy
        Label      (Frac)      (Frac)     (Frac)        (e)         (Frac)
      1 Cl    c    0.000000    0.000000    0.000000     1.48500    1.000000
      2 O     c    0.500000    0.500000    0.500000     0.18300    1.000000
      3 Na    c    0.500000    0.500000    0.000000     1.00000    1.000000
      4 Cl    s    0.000000    0.000000    0.000000    -2.48500    1.000000
      5 O     s    0.500000    0.500000    0.500000    -2.18300    1.000000

  Constraints :

  Constraint no.      Unconstrained     Constrained    Coefficient    Offset
                         Variable         Variable
           1              Strain 1        Strain 2       1.00000      0.0000
           2              Strain 1        Strain 3       1.00000      0.0000

*  General input information                                                   *

  Species output for all configurations :

  Species    Type    Atomic    Atomic    Charge       Radii (Angs)     Library
                     Number     Mass       (e)     Cova   Ionic  VDW   Symbol
    Na       Core       11      22.99   1.000000   0.970  0.000  2.300
    O        Core        8      16.00   0.183000   0.730  0.000  1.360
    O        Shell       8       0.00  -2.183000   0.730  0.000  1.360
    Cl       Core       17      35.45   1.485000   0.990  0.000  1.650
    Cl       Shell      17       0.00  -2.485000   0.990  0.000  1.650
    Mg       Core       12      24.31   0.415000   1.100  0.000  0.000
    Mg       Shell      12       0.00   1.585000   1.100  0.000  0.000
    Ca       Core       20      40.08  -1.135000   0.990  0.000  0.000
    Ca       Shell      20       0.00   3.135000   0.990  0.000  0.000
    Sr       Core       38      87.62  -1.251000   1.120  0.000  0.000
    Sr       Shell      38       0.00   3.251000   1.120  0.000  0.000
    Ba       Core       56     137.33  -7.203000   1.340  0.000  0.000
    Ba       Shell      56       0.00   9.203000   1.340  0.000  0.000

  Lattice summation method               =    Ewald          (3-D)
                                         =    Parry          (2-D)
                                         =    Saunders et al (1-D)
  Accuracy factor for lattice sums       =   12.000

  Analytic derivatives to be used

  Time limit = Infinity

  Maximum range for interatomic potentials =    100000.000000 Angstroms

  General interatomic potentials :

Atom  Types   Potential      Parameter       Value         Units   Cutoffs(Ang)
  1     2                                                            Min /  Max
O    c O    s Spring (c-s)  Spring k 2       593.71600    eV*Ang^-2 0.000  0.800
                            Spring k 4       0.0000000    eV*Ang^-4
Cl   c Cl   s Spring (c-s)  Spring k 2       29.380000    eV*Ang^-2 0.000  0.800
                            Spring k 4       0.0000000    eV*Ang^-4
Mg   c Mg   s Spring (c-s)  Spring k 2       361.60000    eV*Ang^-2 0.000  0.800
                            Spring k 4       0.0000000    eV*Ang^-4
Ca   c Ca   s Spring (c-s)  Spring k 2       110.20000    eV*Ang^-2 0.000  0.800
                            Spring k 4       0.0000000    eV*Ang^-4
Sr   c Sr   s Spring (c-s)  Spring k 2       71.700000    eV*Ang^-2 0.000  0.800
                            Spring k 4       0.0000000    eV*Ang^-4
Ba   c Ba   s Spring (c-s)  Spring k 2       495.20000    eV*Ang^-2 0.000  0.800
                            Spring k 4       0.0000000    eV*Ang^-4
Na   c Na   c Buckingham    Buckingham A     1788.1900    eV        0.000 12.000
                            Buckingham rho  0.15900000    Ang
                            Buckingham C     0.0000000    eV*Ang^6
Na   c O    s Buckingham    Buckingham A     1226.8400    eV        0.000 12.000
                            Buckingham rho  0.30700000    Ang
                            Buckingham C     0.0000000    eV*Ang^6
Na   c Cl   s Buckingham    Buckingham A     2314.7000    eV        0.000 12.000
                            Buckingham rho  0.29000000    Ang
                            Buckingham C     0.0000000    eV*Ang^6
O    s O    s Buckingham    Buckingham A     22764.300    eV        0.000 12.000
                            Buckingham rho  0.14900000    Ang
                            Buckingham C     13.190000    eV*Ang^6
O    s Cl   s Buckingham    Buckingham A     8286.9100    eV        0.000 12.000
                            Buckingham rho  0.25900000    Ang
                            Buckingham C     62.200000    eV*Ang^6
Cl   s Cl   s Buckingham    Buckingham A     1227.2000    eV        0.000 12.000
                            Buckingham rho  0.32100000    Ang
                            Buckingham C     14.530000    eV*Ang^6
O    s Mg   s Buckingham    Buckingham A     1428.5000    eV        0.000 12.000
                            Buckingham rho  0.29450000    Ang
                            Buckingham C     0.0000000    eV*Ang^6
Mg   s Cl   s Buckingham    Buckingham A     4914.5400    eV        0.000 12.000
                            Buckingham rho  0.25700000    Ang
                            Buckingham C     0.0000000    eV*Ang^6
O    s Ca   s Buckingham    Buckingham A     1090.4000    eV        0.000 12.000
                            Buckingham rho  0.34370000    Ang
                            Buckingham C     0.0000000    eV*Ang^6
Cl   s Ca   s Buckingham    Buckingham A     2302.0000    eV        0.000 12.000
                            Buckingham rho  0.34020000    Ang
                            Buckingham C     0.0000000    eV*Ang^6
O    s Sr   s Buckingham    Buckingham A     959.10000    eV        0.000 12.000
                            Buckingham rho  0.37210000    Ang
                            Buckingham C     0.0000000    eV*Ang^6
Cl   s Sr   s Buckingham    Buckingham A     2191.0900    eV        0.000 12.000
                            Buckingham rho  0.34570000    Ang
                            Buckingham C     0.0000000    eV*Ang^6
O    s Ba   s Buckingham    Buckingham A     905.70000    eV        0.000 12.000
                            Buckingham rho  0.39760000    Ang
                            Buckingham C     0.0000000    eV*Ang^6
Cl   s Ba   s Buckingham    Buckingham A     2704.5500    eV        0.000 12.000
                            Buckingham rho  0.35280000    Ang
                            Buckingham C     0.0000000    eV*Ang^6

*  Output for configuration   1                                                *

  Components of energy :

  Interatomic potentials     =           5.13022605 eV
  Monopole - monopole (real) =         -10.03624526 eV
  Monopole - monopole (recip)=         -29.53581274 eV
  Monopole - monopole (total)=         -39.57205800 eV
  Total lattice energy       =         -34.44183194 eV
  Total lattice energy       =           -3323.1103 kJ/(mole unit cells)

  Number of variables =        1

  Maximum number of calculations  =          1000
  Maximum Hessian update interval =            10
  Maximum step size               =   1.000000000
  Maximum parameter tolerance     =   0.000010000
  Maximum function  tolerance     =   0.000010000
  Maximum gradient  tolerance     =   0.001000000
  Maximum gradient  component     =   0.010000000

  Symmetry constrained optimisation

  Symmetry used for second derivatives

  Cell parameters to be optimised using strains

  Newton-Raphson optimiser to be used

  BFGS hessian update to be used

  Lower half triangular hessian to be used

  Start of bulk optimisation :

  ** Hessian calculated **

  **** Optimisation achieved ****

  Final energy =     -34.44191447 eV
  Final Gnorm  =       0.00000000

  Components of energy :

  Interatomic potentials     =           5.09689708 eV
  Monopole - monopole (real) =         -10.02781331 eV
  Monopole - monopole (recip)=         -29.51099824 eV
  Monopole - monopole (total)=         -39.53881155 eV
  Total lattice energy       =         -34.44191447 eV
  Total lattice energy       =           -3323.1183 kJ/(mole unit cells)

  Final asymmetric unit coordinates :

   No.  Atomic        x           y           z         Radius
        Label       (Frac)      (Frac)      (Frac)       (Angs)
     1  Cl    c     0.000000    0.000000    0.000000    0.000000
     2  O     c     0.500000    0.500000    0.500000    0.000000
     3  Na    c     0.500000    0.500000    0.000000    0.000000
     4  Cl    s     0.000000    0.000000    0.000000    0.000000
     5  O     s     0.500000    0.500000    0.500000    0.000000

  Final Cartesian lattice vectors (Angstroms) :

        4.507787    0.000000    0.000000
        0.000000    4.507787    0.000000
        0.000000    0.000000    4.507787

  Final cell parameters and derivatives :

       a            4.507787 Angstrom     dE/de1(xx)     0.000000 eV/strain
       b            4.507787 Angstrom     dE/de2(yy)     0.000000 eV/strain
       c            4.507787 Angstrom     dE/de3(zz)     0.000000 eV/strain
       alpha       90.000000 Degrees      dE/de4(yz)     0.000000 eV/strain
       beta        90.000000 Degrees      dE/de5(xz)     0.000000 eV/strain
       gamma       90.000000 Degrees      dE/de6(xy)     0.000000 eV/strain

  Primitive cell volume =            91.598892 Angs**3

  Density of cell =      2.183054 g/cm**3

  Non-primitive cell volume =            91.598892 Angs**3

  Final internal derivatives :

   No.  Atomic          a             b             c           Radius
        Label          (eV)          (eV)          (eV)        (eV/Angs)
      1 Cl    c       0.000000      0.000000      0.000000      0.000000
      2 O     c       0.000000      0.000000      0.000000      0.000000
      3 Na    c       0.000000      0.000000      0.000000      0.000000
      4 Cl    s       0.000000      0.000000      0.000000      0.000000
      5 O     s       0.000000      0.000000      0.000000      0.000000
  Maximum abs         0.000000      0.000000      0.000000      0.000000

  Comparison of initial and final structures :

[...]
    21  Na    c      -0.000016     -0.000364     -0.000083      0.000000
    22  Cl    c       0.000000     -0.000041      0.000000      0.000000
    23  Na    c      -0.000001     -0.000053      0.000000      0.000000
    24  Na    c       0.000001      0.000000      0.000030      0.000000
    25  O     c       0.000015     -0.000045      0.000015      0.000000
    26  Cl    c      -0.000060     -0.000077      0.000000      0.000000
    27  Cl    c       0.000000      0.000000      0.000019      0.000000
    28  Na    c      -0.000083     -0.000189     -0.000134      0.000000
    29  Na    c       0.000015      0.000000     -0.000023      0.000000
    30  Cl    c       0.000000     -0.000055     -0.000054      0.000000
    31  Na    c       0.000041     -0.000197     -0.000138      0.000000
    32  O     c      -0.000008      0.000000     -0.000007      0.000000
    33  Cl    c      -0.000341      0.000000     -0.000138      0.000000
    34  Na    c      -0.000043     -0.000095     -0.000142      0.000000
    35  Cl    c      -0.000055      0.000000      0.000000      0.000000
    36  Na    c       0.000039     -0.000117      0.000000      0.000000
    37  Na    c      -0.000104     -0.000182     -0.000108      0.000000
    38  Na    c      -0.000132      0.000000      0.000000      0.000000
    39  O     s      -0.006129      0.000000      0.000000      0.000000
    40  Cl    s       0.000000      0.000000     -0.003415      0.000000
    41  Cl    s       0.000000     -0.003040      0.000000      0.000000
    42  O     s       0.001169      0.000000      0.000386      0.000000
    43  Cl    s      -0.000072      0.000000      0.000000      0.000000
    44  Cl    s       0.000000      0.000000     -0.000132      0.000000
    45  O     s       0.000168      0.001023      0.000000      0.000000
    46  Cl    s       0.000000      0.000190     -0.000088      0.000000
    47  Cl    s       0.000460     -0.000022      0.000000      0.000000
    48  O     s       0.000055      0.000000      0.000197      0.000000
    49  O     s      -0.000348      0.000000      0.000000      0.000000
    50  Cl    s       0.000000     -0.000010      0.000000      0.000000
    51  O     s       0.000101      0.000282     -0.000081      0.000000
    52  Cl    s       0.000118     -0.000014      0.000000      0.000000
    53  Cl    s       0.000000      0.000000      0.000007      0.000000
    54  Cl    s       0.000000      0.000047      0.000064      0.000000
    55  O     s       0.000025      0.000000      0.000058      0.000000
    56  Cl    s       0.000247      0.000000      0.000045      0.000000
    57  Cl    s       0.000056      0.000000      0.000000      0.000000

  Comparison of initial and final region 1 :

  Parameter   Initial value   Final value   Difference    Units      Percent
      1 x         -2.253894     -2.400403    -0.146509    Cartesian    6.50
      1 y         -2.253894     -2.400403    -0.146509    Cartesian    6.50
      1 z          0.000000      0.000000     0.000000    Cartesian    0.00
      2 x         -2.253894     -2.239049     0.014844    Cartesian   -0.66
      2 y         -2.253894     -2.239049     0.014844    Cartesian   -0.66
      2 z         -2.253894     -2.239049     0.014844    Cartesian   -0.66
      3 x          0.000000      0.000000     0.000000    Cartesian    0.00
      3 y          0.000000      0.000000     0.000000    Cartesian    0.00
      3 z          4.507787      4.484119    -0.023669    Cartesian   -0.53
      4 x          4.507787      4.516104     0.008317    Cartesian    0.18
      4 y         -2.253894     -2.285129    -0.031236    Cartesian    1.39
      4 z         -2.253894     -2.285129    -0.031236    Cartesian    1.39
      5 x          0.000000      0.000000     0.000000    Cartesian    0.00
      5 y          4.507787      4.460652    -0.047136    Cartesian   -1.05
      5 z          4.507787      4.460652    -0.047136    Cartesian   -1.05
      6 x         -2.253894     -2.246138     0.007756    Cartesian   -0.34
      6 y          6.761681      6.764657     0.002976    Cartesian    0.04
      6 z          0.000000      0.000000     0.000000    Cartesian    0.00
      7 x         -2.253894     -2.254596    -0.000702    Cartesian    0.03
      7 y         -2.253894     -2.254596    -0.000702    Cartesian    0.03
      7 z          6.761681      6.763198     0.001518    Cartesian    0.02
      8 x          4.507787      4.465467    -0.042321    Cartesian   -0.94
      8 y          4.507787      4.465467    -0.042321    Cartesian   -0.94
      8 z          4.507787      4.465467    -0.042321    Cartesian   -0.94
      9 x         -2.253894     -2.251404     0.002490    Cartesian   -0.11
      9 y          6.761681      6.787583     0.025903    Cartesian    0.38
      9 z          4.507787      4.510679     0.002892    Cartesian    0.06
     10 x          0.000000      0.000000     0.000000    Cartesian    0.00
     10 y          0.000000      0.000000     0.000000    Cartesian    0.00
     10 z          9.015574      8.995012    -0.020562    Cartesian   -0.23
     11 x         -2.253894     -2.254012    -0.000118    Cartesian    0.01
     11 y         -2.253894     -2.254012    -0.000118    Cartesian    0.01
     11 z          9.015574      9.018875     0.003300    Cartesian    0.04
     12 x          6.761681      6.803730     0.042049    Cartesian    0.62
     12 y          6.761681      6.803730     0.042049    Cartesian    0.62
     12 z          0.000000      0.000000     0.000000    Cartesian    0.00
     13 x         -2.253894     -2.253158     0.000735    Cartesian   -0.03
     13 y          6.761681      6.762697     0.001016    Cartesian    0.02
     13 z          6.761681      6.762697     0.001016    Cartesian    0.02
     14 x          0.000000      0.000000     0.000000    Cartesian    0.00
     14 y          4.507787      4.506842    -0.000945    Cartesian   -0.02
     14 z          9.015574      9.002201    -0.013374    Cartesian   -0.15
     15 x          6.761681      6.771578     0.009897    Cartesian    0.15
     15 y          6.761681      6.771578     0.009897    Cartesian    0.15
     15 z          4.507787      4.507798     0.000010    Cartesian    0.00
     16 x          4.507787      4.503819    -0.003968    Cartesian   -0.09
     16 y          9.015574      8.997098    -0.018477    Cartesian   -0.20
     16 z          4.507787      4.503819    -0.003968    Cartesian   -0.09
     17 x         -2.253894     -2.259670    -0.005776    Cartesian    0.26
     17 y         11.269468     11.272152     0.002684    Cartesian    0.02
     17 z          0.000000      0.000000     0.000000    Cartesian    0.00
     18 x         -2.253894     -2.272594    -0.018700    Cartesian    0.83
     18 y          6.761681      6.768021     0.006340    Cartesian    0.09
     18 z          9.015574      9.019574     0.003999    Cartesian    0.04
     19 x         -2.253894     -2.253637     0.000257    Cartesian   -0.01
     19 y         -2.253894     -2.253637     0.000257    Cartesian   -0.01
     19 z         11.269468     11.270411     0.000943    Cartesian    0.01
     20 x          6.761681      6.759085    -0.002596    Cartesian   -0.04
     20 y          6.761681      6.759085    -0.002596    Cartesian   -0.04
     20 z          6.761681      6.759085    -0.002596    Cartesian   -0.04
     21 x         -2.253894     -2.261242    -0.007348    Cartesian    0.33
     21 y         11.269468     11.287126     0.017658    Cartesian    0.16
     21 z          4.507787      4.508261     0.000474    Cartesian    0.01
     22 x          0.000000      0.000000     0.000000    Cartesian    0.00
     22 y          9.015574      9.004442    -0.011132    Cartesian   -0.12
     22 z          9.015574      9.004442    -0.011132    Cartesian   -0.12
     23 x          6.761681      6.749880    -0.011801    Cartesian   -0.17
     23 y         11.269468     11.259097    -0.010371    Cartesian   -0.09
     23 z          0.000000      0.000000     0.000000    Cartesian    0.00
     24 x          6.761681      6.765236     0.003555    Cartesian    0.05
     24 y          6.761681      6.765236     0.003555    Cartesian    0.05
     24 z          9.015574      9.016512     0.000938    Cartesian    0.01
     25 x          6.761681      6.762271     0.000590    Cartesian    0.01
     25 y         11.269468     11.270933     0.001465    Cartesian    0.01
     25 z         -2.253894     -2.254598    -0.000704    Cartesian    0.03
     26 x          4.507787      4.498215    -0.009572    Cartesian   -0.21
     26 y          9.015574      9.002021    -0.013553    Cartesian   -0.15
     26 z          9.015574      9.002021    -0.013553    Cartesian   -0.15
     27 x          0.000000      0.000000     0.000000    Cartesian    0.00
     27 y          0.000000      0.000000     0.000000    Cartesian    0.00
     27 z         13.523362     13.514579    -0.008782    Cartesian   -0.06
     28 x          6.761681      6.768341     0.006660    Cartesian    0.10
     28 y         11.269468     11.282620     0.013152    Cartesian    0.12
     28 z          4.507787      4.509341     0.001554    Cartesian    0.03
     29 x         -2.253894     -2.243179     0.010715    Cartesian   -0.48
     29 y         -2.253894     -2.243179     0.010715    Cartesian   -0.48
     29 z         13.523362     13.525597     0.002235    Cartesian    0.02
     30 x          0.000000      0.000000     0.000000    Cartesian    0.00
     30 y          4.507787      4.504255    -0.003532    Cartesian   -0.08
     30 z         13.523362     13.513180    -0.010182    Cartesian   -0.08
     31 x         -2.253894     -2.245650     0.008244    Cartesian   -0.37
     31 y         11.269468     11.273689     0.004221    Cartesian    0.04
     31 z          9.015574      9.016845     0.001270    Cartesian    0.01
     32 x          6.761681      6.762914     0.001234    Cartesian    0.02
     32 y          6.761681      6.762914     0.001234    Cartesian    0.02
     32 z         11.269468     11.269708     0.000240    Cartesian    0.00
     33 x          4.507787      4.508083     0.000296    Cartesian    0.01
     33 y          4.507787      4.508083     0.000296    Cartesian    0.01
     33 z         13.523362     13.505145    -0.018216    Cartesian   -0.13
     34 x         -2.253894     -2.249052     0.004841    Cartesian   -0.21
     34 y          6.761681      6.771443     0.009762    Cartesian    0.14
     34 z         13.523362     13.525413     0.002052    Cartesian    0.02
     35 x          9.015574      9.009734    -0.005840    Cartesian   -0.06
     35 y          9.015574      9.009734    -0.005840    Cartesian   -0.06
     35 z          9.015574      9.009734    -0.005840    Cartesian   -0.06
     36 x         -2.253894     -2.257588    -0.003695    Cartesian    0.16
     36 y         15.777255     15.792783     0.015527    Cartesian    0.10
     36 z          0.000000      0.000000     0.000000    Cartesian    0.00
     37 x          6.761681      6.768495     0.006814    Cartesian    0.10
     37 y         11.269468     11.278560     0.009092    Cartesian    0.08
     37 z          9.015574      9.017491     0.001917    Cartesian    0.02
     38 x         11.269468     11.287204     0.017736    Cartesian    0.16
     38 y         11.269468     11.287204     0.017736    Cartesian    0.16
     38 z          0.000000      0.000000     0.000000    Cartesian    0.00
     39 x         -2.253894     -2.239088     0.014806    Cartesian   -0.66
     39 y         -2.253894     -2.239088     0.014806    Cartesian   -0.66
     39 z         -2.253894     -2.239088     0.014806    Cartesian   -0.66
     40 x          0.000000      0.000000     0.000000    Cartesian    0.00
     40 y          0.000000      0.000000     0.000000    Cartesian    0.00
     40 z          4.507787      4.484586    -0.023201    Cartesian   -0.51
     41 x          0.000000      0.000000     0.000000    Cartesian    0.00
     41 y          4.507787      4.448824    -0.058963    Cartesian   -1.31
     41 z          4.507787      4.448824    -0.058963    Cartesian   -1.31
     42 x         -2.253894     -2.254597    -0.000704    Cartesian    0.03
     42 y         -2.253894     -2.254597    -0.000704    Cartesian    0.03
     42 z          6.761681      6.763197     0.001516    Cartesian    0.02
     43 x          4.507787      4.459576    -0.048211    Cartesian   -1.07
     43 y          4.507787      4.459576    -0.048211    Cartesian   -1.07
     43 z          4.507787      4.459576    -0.048211    Cartesian   -1.07
     44 x          0.000000      0.000000     0.000000    Cartesian    0.00
     44 y          0.000000      0.000000     0.000000    Cartesian    0.00
     44 z          9.015574      8.992324    -0.023250    Cartesian   -0.26
     45 x         -2.253894     -2.253163     0.000730    Cartesian   -0.03
     45 y          6.761681      6.762705     0.001024    Cartesian    0.02
     45 z          6.761681      6.762705     0.001024    Cartesian    0.02
     46 x          0.000000      0.000000     0.000000    Cartesian    0.00
     46 y          4.507787      4.506528    -0.001259    Cartesian   -0.03
     46 z          9.015574      9.000381    -0.015194    Cartesian   -0.17
     47 x          4.507787      4.503054    -0.004734    Cartesian   -0.11
     47 y          9.015574      8.994449    -0.021125    Cartesian   -0.23
     47 z          4.507787      4.503054    -0.004734    Cartesian   -0.11
     48 x         -2.253894     -2.253636     0.000258    Cartesian   -0.01
     48 y         -2.253894     -2.253636     0.000258    Cartesian   -0.01
     48 z         11.269468     11.270413     0.000945    Cartesian    0.01
     49 x          6.761681      6.759083    -0.002597    Cartesian   -0.04
     49 y          6.761681      6.759083    -0.002597    Cartesian   -0.04
     49 z          6.761681      6.759083    -0.002597    Cartesian   -0.04
     50 x          0.000000      0.000000     0.000000    Cartesian    0.00
     50 y          9.015574      9.002337    -0.013237    Cartesian   -0.15
     50 z          9.015574      9.002337    -0.013237    Cartesian   -0.15
     51 x          6.761681      6.762272     0.000591    Cartesian    0.01
     51 y         11.269468     11.270932     0.001464    Cartesian    0.01
     51 z         -2.253894     -2.254599    -0.000706    Cartesian    0.03
     52 x          4.507787      4.496705    -0.011082    Cartesian   -0.25
     52 y          9.015574      8.999988    -0.015586    Cartesian   -0.17
     52 z          9.015574      8.999988    -0.015586    Cartesian   -0.17
     53 x          0.000000      0.000000     0.000000    Cartesian    0.00
     53 y          0.000000      0.000000     0.000000    Cartesian    0.00
     53 z         13.523362     13.513197    -0.010165    Cartesian   -0.08
     54 x          0.000000      0.000000     0.000000    Cartesian    0.00
     54 y          4.507787      4.503877    -0.003910    Cartesian   -0.09
     54 z         13.523362     13.511865    -0.011497    Cartesian   -0.09
     55 x          6.761681      6.762915     0.001234    Cartesian    0.02
     55 y          6.761681      6.762915     0.001234    Cartesian    0.02
     55 z         11.269468     11.269715     0.000247    Cartesian    0.00
     56 x          4.507787      4.508143     0.000356    Cartesian    0.01
     56 y          4.507787      4.508143     0.000356    Cartesian    0.01
     56 z         13.523362     13.502876    -0.020486    Cartesian   -0.15
     57 x          9.015574      9.009148    -0.006427    Cartesian   -0.07
     57 y          9.015574      9.009148    -0.006427    Cartesian   -0.07
     57 z          9.015574      9.009148    -0.006427    Cartesian   -0.07

  Time to end of optimisation  =       12.5947 seconds

  Timing analysis for GULP :

  Task / Subroutine                                          Time (Seconds)
  Calculation of reciprocal space energy and derivatives          0.0002
  Calculation of reciprocal space energy using symmetry           0.0004
  Calculation of real space energy and derivatives                0.0014
  Calculation of real space energy using symmetry                 0.0034
  Calculation for region 1 energy and derivatives (2-b)           9.4621
  Calculation for region 2a energy                                2.5423
  Calculation for region 2b energy                                0.0002
  Calculation and manipulation of Hessian matrix                  0.2324
  Calculation of matrix inversion                                 0.0039
  Symmetry generation of equivalent positions                     0.0022

  Dump file written as Na3OCl.grs

  Job Finished at 18:06.45 30th November   2020