  Job Started  at 11:46.32  9th January    2021

  Number of CPUs =     1

  Total number of configurations input =      1

*  Input for Configuration =   1                                               *

  Formula = ClONa3

  Number of irreducible atoms/shells =       5

  Total number atoms/shells =       7

  Dimensionality = 3               :  Bulk

  Symmetry :

  Crystal family                   :  Cubic
  Crystal class  (Groth - 1921)    :  Cubic Hexakisoctahedral

  Space group (centrosymmetric)    :  P M 3 M

  Patterson group                  :  P m -3 m

  Cartesian lattice vectors (Angstroms) :

        4.504000    0.000000    0.000000
        0.000000    4.504000    0.000000
        0.000000    0.000000    4.504000

  Cell parameters (Angstroms/Degrees):

  a =       4.5040    alpha =  90.0000
  b =       4.5040    beta  =  90.0000
  c =       4.5040    gamma =  90.0000

  Initial cell volume =          91.368216 Angs**3

  Temperature of configuration =   0.00     K

  Pressure of configuration =         0.000 GPa

  Fractional coordinates of asymmetric unit :

   No.  Atomic       x           y          z         Charge      Occupancy
        Label      (Frac)      (Frac)     (Frac)        (e)         (Frac)
      1 Cl    c    0.000000    0.000000    0.000000     1.48500    1.000000
      2 O     c    0.500000    0.500000    0.500000     0.18300    1.000000
      3 Na    c    0.500000    0.500000    0.000000     1.00000    1.000000
      4 Cl    s    0.000000    0.000000    0.000000    -2.48500    1.000000
      5 O     s    0.500000    0.500000    0.500000    -2.18300    1.000000

  Constraints :

  Constraint no.      Unconstrained     Constrained    Coefficient    Offset
                         Variable         Variable
           1              Strain 1        Strain 2       1.00000      0.0000
           2              Strain 1        Strain 3       1.00000      0.0000

*  General input information                                                   *

  Species output for all configurations :

  Species    Type    Atomic    Atomic    Charge       Radii (Angs)     Library
                     Number     Mass       (e)     Cova   Ionic  VDW   Symbol
    Na       Core       11      22.99   1.000000   0.970  0.000  2.300
    O        Core        8      16.00   0.183000   0.730  0.000  1.360
    O        Shell       8       0.00  -2.183000   0.730  0.000  1.360
    Cl       Core       17      35.45   1.485000   0.990  0.000  1.650
    Cl       Shell      17       0.00  -2.485000   0.990  0.000  1.650
    Mg       Core       12      24.31   0.415000   1.100  0.000  0.000
    Mg       Shell      12       0.00   1.585000   1.100  0.000  0.000
    Ca       Core       20      40.08  -1.135000   0.990  0.000  0.000
    Ca       Shell      20       0.00   3.135000   0.990  0.000  0.000
    Sr       Core       38      87.62  -1.251000   1.120  0.000  0.000
    Sr       Shell      38       0.00   3.251000   1.120  0.000  0.000
    Ba       Core       56     137.33  -7.203000   1.340  0.000  0.000
    Ba       Shell      56       0.00   9.203000   1.340  0.000  0.000

  Lattice summation method               =    Ewald          (3-D)
                                         =    Parry          (2-D)
                                         =    Saunders et al (1-D)
  Accuracy factor for lattice sums       =   12.000

  Analytic derivatives to be used

  Time limit = Infinity

  Maximum range for interatomic potentials =    100000.000000 Angstroms

  General interatomic potentials :

Atom  Types   Potential      Parameter       Value         Units   Cutoffs(Ang)
  1     2                                                            Min /  Max
O    c O    s Spring (c-s)  Spring k 2       593.71600    eV*Ang^-2 0.000  0.800
                            Spring k 4       0.0000000    eV*Ang^-4
Cl   c Cl   s Spring (c-s)  Spring k 2       29.380000    eV*Ang^-2 0.000  0.800
                            Spring k 4       0.0000000    eV*Ang^-4
Mg   c Mg   s Spring (c-s)  Spring k 2       361.60000    eV*Ang^-2 0.000  0.800
                            Spring k 4       0.0000000    eV*Ang^-4
Ca   c Ca   s Spring (c-s)  Spring k 2       110.20000    eV*Ang^-2 0.000  0.800
                            Spring k 4       0.0000000    eV*Ang^-4
Sr   c Sr   s Spring (c-s)  Spring k 2       71.700000    eV*Ang^-2 0.000  0.800
                            Spring k 4       0.0000000    eV*Ang^-4
Ba   c Ba   s Spring (c-s)  Spring k 2       495.20000    eV*Ang^-2 0.000  0.800
                            Spring k 4       0.0000000    eV*Ang^-4
Na   c Na   c Buckingham    Buckingham A     1788.1900    eV        0.000 12.000
                            Buckingham rho  0.15900000    Ang
                            Buckingham C     0.0000000    eV*Ang^6
Na   c O    s Buckingham    Buckingham A     588.38000    eV        0.000 12.000
                            Buckingham rho  0.33800000    Ang
                            Buckingham C     0.0000000    eV*Ang^6
Na   c Cl   s Buckingham    Buckingham A     1170.4100    eV        0.000 12.000
                            Buckingham rho  0.31500000    Ang
                            Buckingham C     0.0000000    eV*Ang^6
O    s O    s Buckingham    Buckingham A     22764.300    eV        0.000 12.000
                            Buckingham rho  0.14900000    Ang
                            Buckingham C     13.190000    eV*Ang^6
O    s Cl   s Buckingham    Buckingham A     8286.9100    eV        0.000 12.000
                            Buckingham rho  0.25900000    Ang
                            Buckingham C     62.200000    eV*Ang^6
Cl   s Cl   s Buckingham    Buckingham A     1227.2000    eV        0.000 12.000
                            Buckingham rho  0.32100000    Ang
                            Buckingham C     14.530000    eV*Ang^6
O    s Mg   s Buckingham    Buckingham A     1428.5000    eV        0.000 12.000
                            Buckingham rho  0.29450000    Ang
                            Buckingham C     0.0000000    eV*Ang^6
Mg   s Cl   s Buckingham    Buckingham A     4914.5400    eV        0.000 12.000
                            Buckingham rho  0.25700000    Ang
                            Buckingham C     0.0000000    eV*Ang^6
O    s Ca   s Buckingham    Buckingham A     1090.4000    eV        0.000 12.000
                            Buckingham rho  0.34370000    Ang
                            Buckingham C     0.0000000    eV*Ang^6
Cl   s Ca   s Buckingham    Buckingham A     2302.0000    eV        0.000 12.000
                            Buckingham rho  0.34020000    Ang
                            Buckingham C     0.0000000    eV*Ang^6
O    s Sr   s Buckingham    Buckingham A     959.10000    eV        0.000 12.000
                            Buckingham rho  0.37210000    Ang
                            Buckingham C     0.0000000    eV*Ang^6
Cl   s Sr   s Buckingham    Buckingham A     2191.0900    eV        0.000 12.000
                            Buckingham rho  0.34570000    Ang
                            Buckingham C     0.0000000    eV*Ang^6
O    s Ba   s Buckingham    Buckingham A     905.70000    eV        0.000 12.000
                            Buckingham rho  0.39760000    Ang
                            Buckingham C     0.0000000    eV*Ang^6
Cl   s Ba   s Buckingham    Buckingham A     2704.5500    eV        0.000 12.000
                            Buckingham rho  0.35280000    Ang
                            Buckingham C     0.0000000    eV*Ang^6

*  Output for configuration   1                                                *

  Components of energy :

  Interatomic potentials     =           4.94315381 eV
  Monopole - monopole (real) =         -10.03624526 eV
  Monopole - monopole (recip)=         -29.53581274 eV
  Monopole - monopole (total)=         -39.57205800 eV
  Total lattice energy       =         -34.62890419 eV
  Total lattice energy       =           -3341.1599 kJ/(mole unit cells)

  Number of variables =        1

  Maximum number of calculations  =          1000
  Maximum Hessian update interval =            10
  Maximum step size               =   1.000000000
  Maximum parameter tolerance     =   0.000010000
  Maximum function  tolerance     =   0.000010000
  Maximum gradient  tolerance     =   0.001000000
  Maximum gradient  component     =   0.010000000

  Symmetry constrained optimisation

  Symmetry used for second derivatives

  Cell parameters to be optimised using strains

  Newton-Raphson optimiser to be used

  BFGS hessian update to be used

  Lower half triangular hessian to be used

  Start of bulk optimisation :

  ** Hessian calculated **

  **** Optimisation achieved ****

  Final energy =     -34.67767136 eV
  Final Gnorm  =       0.00000010

  Components of energy :

  Interatomic potentials     =           5.77546103 eV
  Monopole - monopole (real) =         -10.25970290 eV
  Monopole - monopole (recip)=         -30.19342950 eV
  Monopole - monopole (total)=         -40.45313239 eV
  Total lattice energy       =         -34.67767136 eV
  Total lattice energy       =           -3345.8652 kJ/(mole unit cells)

  Final asymmetric unit coordinates :

   No.  Atomic        x           y           z         Radius
        Label       (Frac)      (Frac)      (Frac)       (Angs)
     1  Cl    c     0.000000    0.000000    0.000000    0.000000
     2  O     c     0.500000    0.500000    0.500000    0.000000
     3  Na    c     0.500000    0.500000    0.000000    0.000000
     4  Cl    s     0.000000    0.000000    0.000000    0.000000
     5  O     s     0.500000    0.500000    0.500000    0.000000

  Final Cartesian lattice vectors (Angstroms) :

        4.405902    0.000000    0.000000
        0.000000    4.405902    0.000000
        0.000000    0.000000    4.405902

  Final cell parameters and derivatives :

       a            4.405902 Angstrom     dE/de1(xx)     0.000000 eV/strain
       b            4.405902 Angstrom     dE/de2(yy)     0.000000 eV/strain
       c            4.405902 Angstrom     dE/de3(zz)     0.000000 eV/strain
       alpha       90.000000 Degrees      dE/de4(yz)     0.000000 eV/strain
       beta        90.000000 Degrees      dE/de5(xz)     0.000000 eV/strain
       gamma       90.000000 Degrees      dE/de6(xy)     0.000000 eV/strain

  Primitive cell volume =            85.527266 Angs**3

  Density of cell =      2.338030 g/cm**3

  Non-primitive cell volume =            85.527266 Angs**3

  Final internal derivatives :

   No.  Atomic          a             b             c           Radius
        Label          (eV)          (eV)          (eV)        (eV/Angs)
      1 Cl    c       0.000000      0.000000      0.000000      0.000000
      2 O     c       0.000000      0.000000      0.000000      0.000000
      3 Na    c       0.000000      0.000000      0.000000      0.000000
      4 Cl    s       0.000000      0.000000      0.000000      0.000000
      5 O     s       0.000000      0.000000      0.000000      0.000000
  Maximum abs         0.000000      0.000000      0.000000      0.000000

  Comparison of initial and final structures :

[...]
    286 y          2.202951      2.202236    -0.000715    Cartesian   -0.03
    286 z         -2.202951     -2.216865    -0.013914    Cartesian    0.63
    287 x          6.608853      6.599623    -0.009230    Cartesian   -0.14
    287 y         -2.202951     -2.188837     0.014114    Cartesian   -0.64
    287 z          6.608853      6.583035    -0.025819    Cartesian   -0.39
    288 x          6.608853      6.602566    -0.006287    Cartesian   -0.10
    288 y         -2.202951     -2.192910     0.010042    Cartesian   -0.46
    288 z         -2.202951     -2.193106     0.009845    Cartesian   -0.45
    289 x          2.202951      2.216617     0.013666    Cartesian    0.62
    289 y         -2.202951     -2.187339     0.015612    Cartesian   -0.71
    289 z          6.608853      6.583984    -0.024869    Cartesian   -0.38
    290 x          2.202951      2.202374    -0.000577    Cartesian   -0.03
    290 y         -2.202951     -2.198623     0.004329    Cartesian   -0.20
    290 z         -2.202951     -2.210594    -0.007643    Cartesian    0.35
    291 x          8.811805      8.849045     0.037240    Cartesian    0.42
    291 y          8.811805      8.849045     0.037240    Cartesian    0.42
    291 z          8.811805      8.854916     0.043112    Cartesian    0.49
    292 x          4.405902      4.403128    -0.002774    Cartesian   -0.06
    292 y         13.217707     13.261580     0.043874    Cartesian    0.33
    292 z          4.405902      4.411599     0.005697    Cartesian    0.13
    293 x          4.405902      4.400160    -0.005742    Cartesian   -0.13
    293 y         13.217707     13.251679     0.033972    Cartesian    0.26
    293 z          0.000000     -0.013319    -0.013319    Cartesian    0.00
    294 x          8.811805      8.815520     0.003716    Cartesian    0.04
    294 y          8.811805      8.815520     0.003716    Cartesian    0.04
    294 z         -4.405902     -4.434273    -0.028371    Cartesian    0.64
    295 x          8.811805      8.827541     0.015737    Cartesian    0.18
    295 y          0.000000     -0.056431    -0.056431    Cartesian    0.00
    295 z          8.811805      8.828540     0.016736    Cartesian    0.19
    296 x          8.811805      8.816359     0.004555    Cartesian    0.05
    296 y          0.000000     -0.038757    -0.038757    Cartesian    0.00
    296 z         -4.405902     -4.435233    -0.029331    Cartesian    0.67
    297 x          0.000000     -0.055440    -0.055440    Cartesian    0.00
    297 y          0.000000     -0.055440    -0.055440    Cartesian    0.00
    297 z          8.811805      8.804411    -0.007393    Cartesian   -0.08
    298 x          4.405902      4.406866     0.000963    Cartesian    0.02
    298 y         -4.405902     -4.404601     0.001302    Cartesian   -0.03
    298 z          4.405902      4.406612     0.000710    Cartesian    0.02
    299 x          4.405902      4.397166    -0.008736    Cartesian   -0.20
    299 y         -4.405902     -4.397634     0.008268    Cartesian   -0.19
    299 z          0.000000     -0.019321    -0.019321    Cartesian    0.00
    300 x         11.014756     11.036880     0.022124    Cartesian    0.20
    300 y         11.014756     11.036880     0.022124    Cartesian    0.20
    300 z          2.202951      2.198268    -0.004683    Cartesian   -0.21
    301 x          0.000000     -0.073058    -0.073058    Cartesian    0.00
    301 y          0.000000     -0.073058    -0.073058    Cartesian    0.00
    301 z         -4.405902     -4.403526     0.002376    Cartesian   -0.05
    302 x          6.608853      6.628405     0.019552    Cartesian    0.30
    302 y          6.608853      6.628405     0.019552    Cartesian    0.30
    302 z         11.014756     11.014676    -0.000080    Cartesian   -0.00
    303 x          6.608853      6.632817     0.023963    Cartesian    0.36
    303 y          2.202951      2.194098    -0.008853    Cartesian   -0.40
    303 z         11.014756     11.012739    -0.002016    Cartesian   -0.02
    304 x          6.608853      6.616127     0.007273    Cartesian    0.11
    304 y          6.608853      6.616127     0.007273    Cartesian    0.11
    304 z         -6.608853     -6.614989    -0.006136    Cartesian    0.09
    305 x         11.014756     11.031444     0.016688    Cartesian    0.15
    305 y         -2.202951     -2.204738    -0.001787    Cartesian    0.08
    305 z          2.202951      2.199460    -0.003491    Cartesian   -0.16
    306 x          2.202951      2.192112    -0.010839    Cartesian   -0.49
    306 y          2.202951      2.192112    -0.010839    Cartesian   -0.49
    306 z         11.014756     11.032447     0.017692    Cartesian    0.16
    307 x          6.608853      6.623440     0.014587    Cartesian    0.22
    307 y          2.202951      2.201778    -0.001173    Cartesian   -0.05
    307 z         -6.608853     -6.632632    -0.023778    Cartesian    0.36
    308 x          2.202951      2.200105    -0.002846    Cartesian   -0.13
    308 y          2.202951      2.200105    -0.002846    Cartesian   -0.13
    308 z         -6.608853     -6.679571    -0.070717    Cartesian    1.07
    309 x         -2.202951     -2.200714     0.002237    Cartesian   -0.10
    309 y         -2.202951     -2.200714     0.002237    Cartesian   -0.10
    309 z          2.202951      2.197943    -0.005008    Cartesian   -0.23
    310 x          8.811805      8.815421     0.003617    Cartesian    0.04
    310 y         13.217707     13.251074     0.033367    Cartesian    0.25
    310 z          4.405902      4.406467     0.000565    Cartesian    0.01
    311 x          8.811805      8.813642     0.001837    Cartesian    0.02
    311 y         13.217707     13.246903     0.029196    Cartesian    0.22
    311 z          0.000000     -0.010289    -0.010289    Cartesian    0.00
    312 x         13.217707     13.235069     0.017362    Cartesian    0.13
    312 y          0.000000     -0.015610    -0.015610    Cartesian    0.00
    312 z          4.405902      4.406752     0.000850    Cartesian    0.02
    313 x         13.217707     13.231692     0.013985    Cartesian    0.11
    313 y          0.000000     -0.015064    -0.015064    Cartesian    0.00
    313 z          0.000000     -0.009041    -0.009041    Cartesian    0.00
    314 x          8.811805      8.782047    -0.029757    Cartesian   -0.34
    314 y         -4.405902     -4.427601    -0.021699    Cartesian    0.49
    314 z          4.405902      4.393365    -0.012537    Cartesian   -0.28
    315 x          8.811805      8.778506    -0.033298    Cartesian   -0.38
    315 y         -4.405902     -4.418967    -0.013065    Cartesian    0.30
    315 z          0.000000     -0.001779    -0.001779    Cartesian    0.00
    316 x         11.014756     11.034067     0.019312    Cartesian    0.18
    316 y         11.014756     11.034067     0.019312    Cartesian    0.18
    316 z          6.608853      6.619317     0.010463    Cartesian    0.16
    317 x          0.000000     -0.023685    -0.023685    Cartesian    0.00
    317 y         -4.405902     -4.396339     0.009564    Cartesian   -0.22
    317 z          4.405902      4.401966    -0.003936    Cartesian   -0.09
    318 x         11.014756     11.026989     0.012234    Cartesian    0.11
    318 y         11.014756     11.026989     0.012234    Cartesian    0.11
    318 z         -2.202951     -2.218686    -0.015735    Cartesian    0.71
    319 x          0.000000     -0.028678    -0.028678    Cartesian    0.00
    319 y         -4.405902     -4.382705     0.023197    Cartesian   -0.53
    319 z          0.000000     -0.022539    -0.022539    Cartesian    0.00
    320 x         11.014756     11.027913     0.013157    Cartesian    0.12
    320 y         -2.202951     -2.213696    -0.010744    Cartesian    0.49
    320 z          6.608853      6.617473     0.008619    Cartesian    0.13
    321 x         11.014756     11.029523     0.014767    Cartesian    0.13
    321 y         -2.202951     -2.216426    -0.013475    Cartesian    0.61
    321 z         -2.202951     -2.216348    -0.013396    Cartesian    0.61
    322 x         -2.202951     -2.184520     0.018431    Cartesian   -0.84
    322 y         -2.202951     -2.184520     0.018431    Cartesian   -0.84
    322 z          6.608853      6.594806    -0.014047    Cartesian   -0.21
    323 x         -2.202951     -2.191364     0.011588    Cartesian   -0.53
    323 y         -2.202951     -2.191364     0.011588    Cartesian   -0.53
    323 z         -2.202951     -2.189770     0.013181    Cartesian   -0.60
    324 x          4.405902      4.394953    -0.010949    Cartesian   -0.25
    324 y         13.217707     13.228135     0.010428    Cartesian    0.08
    324 z          8.811805      8.817488     0.005683    Cartesian    0.06
    325 x          4.405902      4.396103    -0.009800    Cartesian   -0.22
    325 y         13.217707     13.223457     0.005750    Cartesian    0.04
    325 z         -4.405902     -4.421146    -0.015244    Cartesian    0.35
    326 x          4.405902      4.398090    -0.007812    Cartesian   -0.18
    326 y          4.405902      4.398090    -0.007812    Cartesian   -0.18
    326 z         13.217707     13.257614     0.039907    Cartesian    0.30
    327 x          4.405902      4.400305    -0.005597    Cartesian   -0.13
    327 y          4.405902      4.400305    -0.005597    Cartesian   -0.13
    327 z         -8.811805     -8.831490    -0.019685    Cartesian    0.22
    328 x          4.405902      4.388524    -0.017378    Cartesian   -0.39
    328 y         -4.405902     -4.410891    -0.004988    Cartesian    0.11
    328 z          8.811805      8.783815    -0.027989    Cartesian   -0.32
    329 x          6.608853      6.610853     0.001999    Cartesian    0.03
    329 y         15.420658     15.437811     0.017153    Cartesian    0.11
    329 z          2.202951      2.195185    -0.007766    Cartesian   -0.35
    330 x          6.608853      6.608292    -0.000561    Cartesian   -0.01
    330 y         11.014756     11.015227     0.000471    Cartesian    0.00
    330 z         11.014756     11.018665     0.003909    Cartesian    0.04
    331 x          4.405902      4.387413    -0.018489    Cartesian   -0.42
    331 y         -4.405902     -4.404002     0.001900    Cartesian   -0.04
    331 z         -4.405902     -4.387488     0.018414    Cartesian   -0.42
    332 x         15.420658     15.439036     0.018378    Cartesian    0.12
    332 y          2.202951      2.203478     0.000527    Cartesian    0.02
    332 z          2.202951      2.193149    -0.009802    Cartesian   -0.44
    333 x         11.014756     11.012585    -0.002171    Cartesian   -0.02
    333 y          2.202951      2.200186    -0.002765    Cartesian   -0.13
    333 z         11.014756     11.018794     0.004038    Cartesian    0.04
    334 x          6.608853      6.608470    -0.000383    Cartesian   -0.01
    334 y         11.014756     11.019566     0.004810    Cartesian    0.04
    334 z         -6.608853     -6.609747    -0.000894    Cartesian    0.01
    335 x         11.014756     11.024762     0.010007    Cartesian    0.09
    335 y          2.202951      2.201213    -0.001738    Cartesian   -0.08
    335 z         -6.608853     -6.611348    -0.002495    Cartesian    0.04
    336 x          6.608853      6.607252    -0.001602    Cartesian   -0.02
    336 y         -2.202951     -2.203685    -0.000734    Cartesian    0.03
    336 z         11.014756     11.015003     0.000247    Cartesian    0.00
    337 x          2.202951      2.202343    -0.000608    Cartesian   -0.03
    337 y         -2.202951     -2.196102     0.006849    Cartesian   -0.31
    337 z         11.014756     11.016286     0.001530    Cartesian    0.01
    338 x          6.608853      6.609245     0.000392    Cartesian    0.01
    338 y         -2.202951     -2.209457    -0.006506    Cartesian    0.30
    338 z         -6.608853     -6.610000    -0.001146    Cartesian    0.02
    339 x          6.608853      6.611803     0.002949    Cartesian    0.04
    339 y         -6.608853     -6.613782    -0.004929    Cartesian    0.07
    339 z          2.202951      2.196771    -0.006180    Cartesian   -0.28
    340 x          2.202951      2.203234     0.000283    Cartesian    0.01
    340 y         -2.202951     -2.205503    -0.002552    Cartesian    0.12
    340 z         -6.608853     -6.613832    -0.004978    Cartesian    0.08
    341 x          2.202951      2.200314    -0.002637    Cartesian   -0.12
    341 y         -6.608853     -6.631157    -0.022304    Cartesian    0.34
    341 z          2.202951      2.191515    -0.011436    Cartesian   -0.52
    342 x          8.811805      8.807210    -0.004595    Cartesian   -0.05
    342 y         13.217707     13.234417     0.016710    Cartesian    0.13
    342 z          8.811805      8.818354     0.006550    Cartesian    0.07
    343 x          8.811805      8.807480    -0.004324    Cartesian   -0.05
    343 y         13.217707     13.227624     0.009917    Cartesian    0.08
    343 z         -4.405902     -4.417405    -0.011502    Cartesian    0.26
    344 x          4.405902      4.395934    -0.009968    Cartesian   -0.23
    344 y          8.811805      8.811226    -0.000578    Cartesian   -0.01
    344 z         13.217707     13.229372     0.011665    Cartesian    0.09
    345 x         13.217707     13.224563     0.006856    Cartesian    0.05
    345 y          0.000000     -0.007831    -0.007831    Cartesian    0.00
    345 z          8.811805      8.815933     0.004129    Cartesian    0.05
    346 x         13.217707     13.221363     0.003656    Cartesian    0.03
    346 y          0.000000     -0.009035    -0.009035    Cartesian    0.00
    346 z         -4.405902     -4.419644    -0.013742    Cartesian    0.31
    347 x          4.405902      4.397774    -0.008129    Cartesian   -0.18
    347 y          0.000000     -0.015040    -0.015040    Cartesian    0.00
    347 z         13.217707     13.219036     0.001329    Cartesian    0.01
    348 x          4.405902      4.393831    -0.012071    Cartesian   -0.27
    348 y          8.811805      8.811515    -0.000289    Cartesian   -0.00
    348 z         -8.811805     -8.826617    -0.014812    Cartesian    0.17
    349 x          8.811805      8.787511    -0.024294    Cartesian   -0.28
    349 y         -4.405902     -4.415789    -0.009887    Cartesian    0.22
    349 z          8.811805      8.794230    -0.017575    Cartesian   -0.20
    350 x          8.811805      8.786262    -0.025542    Cartesian   -0.29
    350 y         -4.405902     -4.411649    -0.005747    Cartesian    0.13
    350 z         -4.405902     -4.395311     0.010592    Cartesian   -0.24
    351 x          6.608853      6.608857     0.000003    Cartesian    0.00
    351 y         15.420658     15.425247     0.004589    Cartesian    0.03
    351 z          6.608853      6.614688     0.005834    Cartesian    0.09
    352 x          4.405902      4.398538    -0.007364    Cartesian   -0.17
    352 y          0.000000     -0.020487    -0.020487    Cartesian    0.00
    352 z         -8.811805     -8.814810    -0.003005    Cartesian    0.03
    353 x          0.000000     -0.003895    -0.003895    Cartesian    0.00
    353 y         -4.405902     -4.405469     0.000433    Cartesian   -0.01
    353 z          8.811805      8.780941    -0.030864    Cartesian   -0.35
    354 x          6.608853      6.609543     0.000689    Cartesian    0.01
    354 y         15.420658     15.426647     0.005989    Cartesian    0.04
    354 z         -2.202951     -2.204655    -0.001704    Cartesian    0.08
    355 x         15.420658     15.422825     0.002167    Cartesian    0.01
    355 y          2.202951      2.200480    -0.002471    Cartesian   -0.11
    355 z          6.608853      6.615184     0.006330    Cartesian    0.10

  Time to end of optimisation  =       50.5037 seconds

  Timing analysis for GULP :

  Task / Subroutine                                          Time (Seconds)
  Calculation of reciprocal space energy and derivatives          0.0003
  Calculation of reciprocal space energy using symmetry           0.0006
  Calculation of real space energy and derivatives                0.0020
  Calculation of real space energy using symmetry                 0.0063
  Calculation for region 1 energy and derivatives (2-b)          13.0177
  Calculation for region 2a energy                                8.9106
  Calculation and manipulation of Hessian matrix                 27.1395
  Calculation of matrix inversion                                 1.2636
  Symmetry generation of equivalent positions                     0.0025

  Dump file written as Na3OCl.grs

  Job Finished at 11:47.22  9th January    2021