  Job Started  at 00:07.50 26th August     2021

  Number of CPUs =     1

  Total number of configurations input =      1

*  Input for Configuration =   1                                               *

  Formula = Ga2Cl6

  Number of irreducible atoms/shells =      14

  Total number atoms/shells =      14

  Dimensionality = 3               :  Bulk

  Cartesian lattice vectors (Angstroms) :

        7.286000    0.000000    0.000000
        3.439979    6.422799    0.000000
        3.788756    2.268736    5.995088

  Cell parameters (Angstroms/Degrees):

  a =       7.2860    alpha =  59.4140
  b =       7.2860    beta  =  59.4140
  c =       7.4460    gamma =  61.8270

  Initial cell volume =         280.549192 Angs**3

  Temperature of configuration =   0.00     K

  Pressure of configuration =         0.000 GPa

  Fractional coordinates of asymmetric unit :

   No.  Atomic       x           y          z         Charge      Occupancy
        Label      (Frac)      (Frac)     (Frac)        (e)         (Frac)
      1 Ga    c    0.344749    0.344749    0.084305     3.00000    1.000000
      2 Ga    c    0.655251 *  0.655251 *  0.915695 *   3.00000    1.000000
      3 Cl    c    0.278747 *  0.721253 *  0.000000 *   1.48500    1.000000
      4 Cl    c    0.721253 *  0.278747 *  0.000000 *   1.48500    1.000000
      5 Cl    c    0.689436 *  0.689436 *  0.164912 *   1.48500    1.000000
      6 Cl    c    0.310564 *  0.310564 *  0.835088 *   1.48500    1.000000
      7 Cl    c    0.813092 *  0.813092 *  0.569365 *   1.48500    1.000000
      8 Cl    c    0.186908 *  0.186908 *  0.430635 *   1.48500    1.000000
      9 Cl    s    0.278747 *  0.721253 *  0.000000 *  -2.48500    1.000000
     10 Cl    s    0.721253 *  0.278747 *  0.000000 *  -2.48500    1.000000
     11 Cl    s    0.689436 *  0.689436 *  0.164912 *  -2.48500    1.000000
     12 Cl    s    0.310564 *  0.310564 *  0.835088 *  -2.48500    1.000000
     13 Cl    s    0.813092 *  0.813092 *  0.569365 *  -2.48500    1.000000
     14 Cl    s    0.186908 *  0.186908 *  0.430635 *  -2.48500    1.000000

*  General input information                                                   *

  Species output for all configurations :

  Species    Type    Atomic    Atomic    Charge       Radii (Angs)     Library
                     Number     Mass       (e)     Cova   Ionic  VDW   Symbol
    Ga       Core       31      69.72   3.000000   1.220  0.000  1.820
    Cl       Core       17      35.45   1.485000   0.990  0.000  1.650
    Cl       Shell      17       0.00  -2.485000   0.990  0.000  1.650

  Lattice summation method               =    Ewald          (3-D)
                                         =    Parry          (2-D)
                                         =    Saunders et al (1-D)
  Accuracy factor for lattice sums       =   12.000

  Analytic derivatives to be used

  Time limit = Infinity

  Maximum range for interatomic potentials =    100000.000000 Angstroms

  General interatomic potentials :

Atom  Types   Potential      Parameter       Value         Units   Cutoffs(Ang)
  1     2                                                            Min /  Max
Cl   c Cl   s Spring (c-s)  Spring k 2       29.380000    eV*Ang^-2 0.000  0.800
                            Spring k 4       0.0000000    eV*Ang^-4
Ga   c Cl   s Buckingham    Buckingham A     924.20000    eV        0.000 12.000
                            Buckingham rho  0.34280000    Ang
                            Buckingham C     0.0000000    eV*Ang^6
Cl   s Cl   s Buckingham    Buckingham A     1227.2000    eV        0.000 12.000
                            Buckingham rho  0.32100000    Ang
                            Buckingham C     14.530000    eV*Ang^6

*  Output for configuration   1                                                *

  Components of energy :

  Interatomic potentials     =          11.57294692 eV
  Monopole - monopole (real) =         -36.64258428 eV
  Monopole - monopole (recip)=         -62.97523081 eV
  Monopole - monopole (total)=         -99.61781509 eV
  Total lattice energy       =         -88.04486817 eV
  Total lattice energy       =           -8494.9839 kJ/(mole unit cells)

  Number of variables =       45

  Maximum number of calculations  =          1000
  Maximum Hessian update interval =            10
  Maximum step size               =   1.000000000
  Maximum parameter tolerance     =   0.000010000
  Maximum function  tolerance     =   0.000010000
  Maximum gradient  tolerance     =   0.001000000
  Maximum gradient  component     =   0.010000000

  Symmetry not applied to optimisation

  Cell parameters to be optimised using strains

  Newton-Raphson optimiser to be used

  BFGS hessian update to be used

  Lower half triangular hessian to be used

  Start of bulk optimisation :

  ** Hessian calculated **
  ** Hessian calculated **
  ** Hessian calculated **
  ** Hessian calculated **
  ** Hessian calculated **
  ** Hessian calculated **
  ** Hessian calculated **
  ** Hessian calculated **
  ** Hessian calculated **
  ** Hessian calculated **
  ** Hessian calculated **
  ** Hessian calculated **
  ** Hessian calculated **

  **** Optimisation achieved ****

  Final energy =    -103.22937106 eV
  Final Gnorm  =       0.00061091

  Components of energy :

  Interatomic potentials     =          38.27257558 eV
  Monopole - monopole (real) =          53.11246600 eV
  Monopole - monopole (recip)=        -194.61441264 eV
  Monopole - monopole (total)=        -141.50194664 eV
  Total lattice energy       =        -103.22937106 eV
  Total lattice energy       =           -9960.0563 kJ/(mole unit cells)

  Final fractional coordinates of atoms :

   No.  Atomic        x           y          z          Radius
        Label       (Frac)      (Frac)     (Frac)       (Angs)
     1  Ga    c     0.344749    0.344749    0.084305    0.000000
     2  Ga    c     0.727725    0.613639    0.888480    0.000000
     3  Cl    c     0.311264    0.717832    0.982123    0.000000
     4  Cl    c     0.761280    0.240602    0.990424    0.000000
     5  Cl    c     0.771256    0.655241    0.141524    0.000000
     6  Cl    c     0.300987    0.302868    0.831593    0.000000
     7  Cl    c     0.867350    0.788276    0.527393    0.000000
     8  Cl    c     0.205245    0.170230    0.445455    0.000000
     9  Cl    s     0.348986    0.670350    0.985168    0.000000
    10  Cl    s     0.723551    0.288072    0.987424    0.000000
    11  Cl    s     0.769191    0.648072    0.100179    0.000000
    12  Cl    s     0.303095    0.310096    0.872881    0.000000
    13  Cl    s     0.844212    0.759336    0.586132    0.000000
    14  Cl    s     0.228360    0.199148    0.386715    0.000000

  Final Cartesian lattice vectors (Angstroms) :

        6.738095   -0.007614   -0.063558
        3.180663    6.365006    0.076805
        3.473594    2.283909    5.769543

  Final cell parameters and derivatives :

       a            6.738399 Angstrom     dE/de1(xx)    -0.000402 eV/strain
       b            7.115885 Angstrom     dE/de2(yy)    -0.000218 eV/strain
       c            7.111239 Angstrom     dE/de3(zz)     0.000006 eV/strain
       alpha       59.044625 Degrees      dE/de4(yz)     0.000257 eV/strain
       beta        61.286659 Degrees      dE/de5(xz)     0.001573 eV/strain
       gamma       63.522402 Degrees      dE/de6(xy)     0.000011 eV/strain

  Primitive cell volume =           247.343535 Angs**3

  Density of cell =      2.364127 g/cm**3

  Non-primitive cell volume =           247.343535 Angs**3

  Final internal derivatives :

   No.  Atomic          a             b             c           Radius
        Label          (eV)          (eV)          (eV)        (eV/Angs)
      1 Ga    c       0.000000      0.000000      0.000000      0.000000
      2 Ga    c      -0.005897     -0.000492     -0.000943      0.000000
      3 Cl    c       0.007077     -0.001504     -0.001837      0.000000
      4 Cl    c      -0.002885      0.002154     -0.002275      0.000000
      5 Cl    c      -0.003155     -0.004695      0.005431      0.000000
      6 Cl    c      -0.001244     -0.000409     -0.002448      0.000000
      7 Cl    c       0.001812     -0.000149     -0.001503      0.000000
      8 Cl    c      -0.001673     -0.000811      0.006508      0.000000
      9 Cl    s       0.004771      0.005793      0.002774      0.000000
     10 Cl    s       0.004720      0.000344      0.005095      0.000000
     11 Cl    s       0.006685      0.002852      0.009194      0.000000
     12 Cl    s      -0.000532      0.005200      0.003605      0.000000
     13 Cl    s      -0.007895     -0.007104     -0.007220      0.000000
     14 Cl    s       0.002596      0.002286      0.007466      0.000000
  Maximum abs         0.007895      0.007104      0.009194      0.000000

  Comparison of initial and final structures :

  Parameter   Initial value   Final value   Difference    Units      Percent
    Volume       280.549192    247.343535   -33.205658    Angs**3    -11.84
    a              7.286000      6.738399    -0.547601    Angstroms   -7.52
    b              7.286000      7.115885    -0.170115    Angstroms   -2.33
    c              7.446000      7.111239    -0.334761    Angstroms   -4.50
    alpha         59.414000     59.044625    -0.369375    Degrees     -0.62
    beta          59.414000     61.286659     1.872659    Degrees      3.15
    gamma         61.827000     63.522402     1.695402    Degrees      2.74
      1 x          0.344749      0.344749     0.000000    Fractional   0.00
      1 y          0.344749      0.344749     0.000000    Fractional   0.00
      1 z          0.084305      0.084305     0.000000    Fractional   0.00
      2 x          0.655251      0.727725     0.072474    Fractional  11.06
      2 y          0.655251      0.613639     0.041612    Fractional   6.35
      2 z          0.915695      0.888480     0.027215    Fractional   2.97
      3 x          0.278747      0.311264     0.032517    Fractional  11.67
      3 y          0.721253      0.717832     0.003421    Fractional   0.47
      3 z          0.000000      0.982123     0.982123    Fractional   0.00
      4 x          0.721253      0.761280     0.040027    Fractional   5.55
      4 y          0.278747      0.240602     0.038145    Fractional  13.68
      4 z          0.000000      0.990424     0.990424    Fractional   0.00
      5 x          0.689436      0.771256     0.081820    Fractional  11.87
      5 y          0.689436      0.655241     0.034195    Fractional   4.96
      5 z          0.164912      0.141524     0.023388    Fractional  14.18
      6 x          0.310564      0.300987     0.009577    Fractional   3.08
      6 y          0.310564      0.302868     0.007696    Fractional   2.48
      6 z          0.835088      0.831593     0.003495    Fractional   0.42
      7 x          0.813092      0.867350     0.054258    Fractional   6.67
      7 y          0.813092      0.788276     0.024816    Fractional   3.05
      7 z          0.569365      0.527393     0.041972    Fractional   7.37
      8 x          0.186908      0.205245     0.018337    Fractional   9.81
[...]
    241 y         -4.426278     -4.431673    -0.005394    Cartesian    0.12
    241 z         -5.966176     -5.955126     0.011050    Cartesian   -0.19
    242 x          1.167640      1.169869     0.002229    Cartesian    0.19
    242 y          6.521775      6.546536     0.024761    Cartesian    0.38
    242 z          5.776832      5.859542     0.082709    Cartesian    1.43
    243 x         13.518023     13.581661     0.063638    Cartesian    0.47
    243 y         -0.150079     -0.101922     0.048156    Cartesian  -32.09
    243 z         -3.664709     -3.604505     0.060204    Cartesian   -1.64
    244 x         13.696987     13.633957    -0.063030    Cartesian   -0.46
    244 y         -0.207199     -0.181063     0.026136    Cartesian  -12.61
    244 z          3.246017      3.260228     0.014210    Cartesian    0.44
    245 x          4.139211      4.162238     0.023027    Cartesian    0.56
    245 y          8.311349      8.152426    -0.158923    Cartesian   -1.91
    245 z         -5.749007     -5.691898     0.057108    Cartesian   -0.99
    246 x         12.798723     12.802932     0.004209    Cartesian    0.03
    246 y          3.957424      3.959780     0.002356    Cartesian    0.06
    246 z          4.977119      4.975847    -0.001272    Cartesian   -0.03
    247 x         -2.326597     -2.318443     0.008154    Cartesian   -0.35
    247 y         -2.009467     -2.007972     0.001496    Cartesian   -0.07
    247 z          0.565628      0.544351    -0.021277    Cartesian   -3.76
    248 x         14.330257     14.587063     0.256807    Cartesian    1.79
    248 y          4.340310      4.173463    -0.166847    Cartesian   -3.84
    248 z          0.515318      0.506360    -0.008958    Cartesian   -1.74
    249 x          3.808357      3.731511    -0.076845    Cartesian   -2.02
    249 y         -1.932038     -1.935259    -0.003221    Cartesian    0.17
    249 z          7.924688      7.964074     0.039386    Cartesian    0.50
    250 x          7.612804      7.595508    -0.017296    Cartesian   -0.23
    250 y         10.595258     10.629112     0.033854    Cartesian    0.32
    250 z          0.020537     -0.007956    -0.028492    Cartesian -138.74
    251 x         -0.593629     -0.585842     0.007786    Cartesian   -1.31
    251 y         -4.683877     -4.688352    -0.004474    Cartesian    0.10
    251 z         -0.805671     -0.824092    -0.018420    Cartesian    2.29
    252 x          4.034729      4.061546     0.026817    Cartesian    0.66
    252 y         10.720546     10.656864    -0.063682    Cartesian   -0.59
    252 z          0.719239      0.683686    -0.035553    Cartesian   -4.94
    253 x          3.108529      3.111571     0.003042    Cartesian    0.10
    253 y         10.254133     10.219948    -0.034185    Cartesian   -0.33
    253 z         -2.242799     -2.278366    -0.035567    Cartesian    1.59
    254 x          3.778229      3.783972     0.005743    Cartesian    0.15
    254 y         -6.564591     -6.559906     0.004685    Cartesian   -0.07
    254 z          3.232770      3.231589    -0.001181    Cartesian   -0.04
    255 x          9.930463      9.975681     0.045218    Cartesian    0.46
    255 y          1.589989      1.606709     0.016721    Cartesian    1.05
    255 z         -8.216264     -8.146134     0.070130    Cartesian   -0.85
    256 x         -0.042007     -0.043229    -0.001223    Cartesian    2.91
    256 y          8.521680      8.459853    -0.061827    Cartesian   -0.73
    256 z          2.372313      2.321911    -0.050402    Cartesian   -2.12
    257 x         -0.970399     -0.983723    -0.013324    Cartesian    1.37
    257 y          8.053750      8.075638     0.021889    Cartesian    0.27
    257 z         -0.588503     -0.651476    -0.062973    Cartesian   10.70
    258 x         12.505792     12.530029     0.024237    Cartesian    0.19
    258 y          8.038521      8.003592    -0.034929    Cartesian   -0.43
    258 z         -0.715619     -0.715318     0.000301    Cartesian   -0.04
    259 x         -3.222669     -3.082341     0.140328    Cartesian   -4.35
    259 y          2.156674      2.191048     0.034374    Cartesian    1.59
    259 z          2.295508      2.189031    -0.106477    Cartesian   -4.64
    260 x          3.599265      3.610717     0.011452    Cartesian    0.32
    260 y         -6.507471     -6.506312     0.001159    Cartesian   -0.02
    260 z         -3.677957     -3.676523     0.001434    Cartesian   -0.04
    261 x          0.937905      0.940415     0.002510    Cartesian    0.27
    261 y         -4.300991     -4.292663     0.008328    Cartesian   -0.19
    261 z         -5.267473     -5.267474    -0.000001    Cartesian    0.00
    262 x          3.694390      3.697657     0.003266    Cartesian    0.09
    262 y          2.091939      2.089519    -0.002420    Cartesian   -0.12
    262 z          9.142676      9.137371    -0.005305    Cartesian   -0.06
    263 x         -0.697232     -0.689218     0.008014    Cartesian   -1.15
    263 y         -2.274132     -2.261151     0.012981    Cartesian   -0.57
    263 z          5.659878      5.644976    -0.014903    Cartesian   -0.26
    264 x          6.486997      6.495087     0.008090    Cartesian    0.12
    264 y          3.938633      3.934759    -0.003874    Cartesian   -0.10
    264 z         -9.293889     -9.287460     0.006429    Cartesian   -0.07
    265 x         -0.886560     -0.861003     0.025557    Cartesian   -2.88
    265 y         -0.602780     -0.652871    -0.050091    Cartesian    8.31
    265 z         -6.498409     -6.473565     0.024844    Cartesian   -0.38
    266 x         12.193097     12.234522     0.041425    Cartesian    0.34
    266 y          5.872833      5.830358    -0.042475    Cartesian   -0.72
    266 z         -5.852713     -5.861873    -0.009160    Cartesian    0.16
    267 x         11.065755     11.090691     0.024936    Cartesian    0.23
    267 y          6.631834      6.642396     0.010562    Cartesian    0.16
    267 z          6.348419      6.371943     0.023524    Cartesian    0.37
    268 x         12.882562     12.885225     0.002663    Cartesian    0.02
    268 y         -4.699106     -4.684644     0.014462    Cartesian   -0.31
    268 z         -0.932787     -0.945828    -0.013041    Cartesian    1.40
    269 x          9.846624      9.839889    -0.006735    Cartesian   -0.07
    269 y         10.246519     10.202411    -0.044107    Cartesian   -0.43
    269 z         -2.306357     -2.337213    -0.030856    Cartesian    1.34
    270 x         -2.013023     -2.000960     0.012064    Cartesian   -0.60
    270 y          0.156769      0.166147     0.009378    Cartesian    5.98
    270 z          5.700027      5.694018    -0.006009    Cartesian   -0.11
    271 x         14.727669     14.736482     0.008813    Cartesian    0.06
    271 y         -2.149984     -2.141008     0.008975    Cartesian   -0.42
    271 z         -0.260190     -0.258762     0.001428    Cartesian   -0.55
    272 x         12.589631     12.545883    -0.043748    Cartesian   -0.35
    272 y         -0.618009     -0.604019     0.013990    Cartesian   -2.26
    272 z         -6.625525     -6.521428     0.104098    Cartesian   -1.57
    273 x         -2.619528     -2.598815     0.020713    Cartesian   -0.79
    273 y          2.071630      2.049387    -0.022243    Cartesian   -1.07
    273 z         -5.127109     -5.131076    -0.003966    Cartesian    0.08
    274 x          0.561135      0.579503     0.018368    Cartesian    3.27
    274 y          8.436636      8.388977    -0.047659    Cartesian   -0.56
    274 z         -5.050304     -5.052545    -0.002241    Cartesian    0.04
    275 x         12.778959     12.783639     0.004680    Cartesian    0.04
    275 y         -2.289361     -2.299192    -0.009831    Cartesian    0.43
    275 z          5.532763      5.540226     0.007464    Cartesian    0.13
    276 x         -4.151061     -4.263855    -0.112794    Cartesian    2.72
    276 y          1.688744      1.629919    -0.058825    Cartesian   -3.48
    276 z         -0.665308     -0.678927    -0.013619    Cartesian    2.05
    277 x         -1.283093     -1.289523    -0.006430    Cartesian    0.50
    277 y          5.888062      5.885063    -0.002999    Cartesian   -0.05
    277 z         -5.725597     -5.740134    -0.014537    Cartesian    0.25
    278 x         10.546452     10.579093     0.032641    Cartesian    0.31
    278 y         -1.939652     -1.985325    -0.045672    Cartesian    2.35
    278 z          7.861130      7.912055     0.050925    Cartesian    0.65
    279 x          8.282505      8.285702     0.003197    Cartesian    0.04
    279 y         -6.223466     -6.221578     0.001889    Cartesian   -0.03
    279 z          5.496106      5.491678    -0.004428    Cartesian   -0.08
    280 x          4.704429      4.708670     0.004240    Cartesian    0.09
    280 y         -6.098179     -6.089613     0.008566    Cartesian   -0.14
    280 z          6.194808      6.186881    -0.007928    Cartesian   -0.13
    281 x          0.874709      0.898545     0.023836    Cartesian    2.72
    281 y         10.602872     10.581301    -0.021572    Cartesian   -0.20
    281 z          0.084094      0.072307    -0.011787    Cartesian  -14.02
    282 x         10.516325     10.522949     0.006625    Cartesian    0.06
    282 y         -6.572206     -6.562877     0.009329    Cartesian   -0.14
    282 z          3.169212      3.171799     0.002588    Cartesian    0.08
    283 x         10.877306     10.865592    -0.011714    Cartesian   -0.11
    283 y          8.303734      8.223236    -0.080498    Cartesian   -0.97
    283 z         -5.812565     -5.784906     0.027659    Cartesian   -0.48
    284 x          0.250924      0.229560    -0.021364    Cartesian   -8.51
    284 y          4.440583      4.416536    -0.024047    Cartesian   -0.54
    284 z          8.065051      8.102992     0.037940    Cartesian    0.47
    285 x         10.337360     10.345091     0.007731    Cartesian    0.07
    285 y         -6.515085     -6.506056     0.009029    Cartesian   -0.14
    285 z         -3.741515     -3.738996     0.002519    Cartesian   -0.07
    286 x          6.373030      6.404257     0.031227    Cartesian    0.49
    286 y          7.962609      7.932406    -0.030204    Cartesian   -0.38
    286 z         -8.075901     -8.031173     0.044728    Cartesian   -0.55
    287 x         -3.252797     -3.252826    -0.000030    Cartesian    0.00
    287 y         -2.475880     -2.475162     0.000717    Cartesian   -0.03
    287 z         -2.396410     -2.403430    -0.007019    Cartesian    0.29
    288 x         11.254076     11.257661     0.003585    Cartesian    0.03
    288 y         -4.433893     -4.431632     0.002261    Cartesian   -0.05
    288 z         -6.029734     -6.026676     0.003058    Cartesian   -0.05
    289 x         10.432486     10.427361    -0.005124    Cartesian   -0.05
    289 y          2.084324      2.082280    -0.002044    Cartesian   -0.10
    289 z          9.079118      9.072195    -0.006923    Cartesian   -0.08
    290 x         13.810954     13.802243    -0.008711    Cartesian   -0.06
    290 y         -4.231176     -4.225895     0.005281    Cartesian   -0.12
    290 z          2.028029      2.025689    -0.002340    Cartesian   -0.12
    291 x         10.772824     10.780581     0.007757    Cartesian    0.07
    291 y         10.712931     10.693898    -0.019034    Cartesian   -0.18
    291 z          0.655681      0.619817    -0.035864    Cartesian   -5.47
    292 x          4.808911      4.812983     0.004072    Cartesian    0.08
    292 y         -8.507375     -8.504902     0.002473    Cartesian   -0.03
    292 z         -0.273438     -0.272542     0.000895    Cartesian   -0.33
    293 x         16.063225     15.997603    -0.065621    Cartesian   -0.41
    293 y          1.665900      1.719686     0.053786    Cartesian    3.23
    293 z         -0.855982     -0.891489    -0.035507    Cartesian    4.15
    294 x          7.968931      7.970025     0.001094    Cartesian    0.01
    294 y         -8.389702     -8.379263     0.010440    Cartesian   -0.12
    294 z          0.361707      0.354463    -0.007244    Cartesian   -2.00
    295 x          5.664094      5.668839     0.004745    Cartesian    0.08
    295 y         10.455880     10.452698    -0.003182    Cartesian   -0.03
    295 z          5.813489      5.806329    -0.007160    Cartesian   -0.12
    296 x         13.434184     13.423043    -0.011141    Cartesian   -0.08
    296 y          8.506451      8.478504    -0.027947    Cartesian   -0.33
    296 z          2.245197      2.237489    -0.007708    Cartesian   -0.34
    297 x          5.831772      5.836384     0.004612    Cartesian    0.08
    297 y         -6.857180     -6.866830    -0.009650    Cartesian    0.14
    297 z         -6.006324     -6.015463    -0.009139    Cartesian    0.15
    298 x         14.434738     14.429769    -0.004969    Cartesian   -0.03
    298 y          1.931114      1.928968    -0.002146    Cartesian   -0.11
    298 z         -5.952928     -5.929138     0.023791    Cartesian   -0.40
    299 x          3.306334      3.313492     0.007158    Cartesian    0.22
    299 y         -2.426373     -2.411027     0.015347    Cartesian   -0.63
    299 z         -9.370694     -9.364278     0.006416    Cartesian   -0.07
    300 x          2.503195      2.516887     0.013692    Cartesian    0.55
    300 y         10.337659     10.315676    -0.021983    Cartesian   -0.21
    300 z          5.181041      5.178840    -0.002200    Cartesian   -0.04
    301 x          9.241290      9.249589     0.008299    Cartesian    0.09
    301 y         10.330045     10.310133    -0.019912    Cartesian   -0.19
    301 z          5.117483      5.115073    -0.002410    Cartesian   -0.05
    302 x          6.749800      6.780257     0.030457    Cartesian    0.45
    302 y         -4.775018     -4.743584     0.031434    Cartesian   -0.66
    302 z         -8.293069     -8.265187     0.027882    Cartesian   -0.34
    303 x          1.544410      1.552482     0.008073    Cartesian    0.52
    303 y         -6.215852     -6.211548     0.004304    Cartesian   -0.07
    303 z          5.559664      5.553968    -0.005696    Cartesian   -0.10
    304 x         -3.336636     -3.308657     0.027979    Cartesian   -0.84
    304 y          6.180650      6.156838    -0.023812    Cartesian   -0.39
    304 z          3.513496      3.512643    -0.000854    Cartesian   -0.02
    305 x         -3.515600     -3.504747     0.010853    Cartesian   -0.31
    305 y          6.237771      6.243159     0.005388    Cartesian    0.09
    305 z         -3.397230     -3.392347     0.004883    Cartesian   -0.14
    306 x          6.353558      6.358120     0.004561    Cartesian    0.07
    306 y         -0.116059     -0.108398     0.007661    Cartesian   -6.60
    306 z         10.733415     10.720125    -0.013290    Cartesian   -0.12
    307 x          7.251823      7.248210    -0.003613    Cartesian   -0.05
    307 y         -4.280682     -4.267144     0.013538    Cartesian   -0.32
    307 z          9.002313      8.998685    -0.003628    Cartesian   -0.04
    308 x          1.230836      1.232043     0.001207    Cartesian    0.10
    308 y         -8.382088     -8.361559     0.020529    Cartesian   -0.24
    308 z          0.425265      0.417087    -0.008178    Cartesian   -1.92
    309 x         10.044429     10.040183    -0.004247    Cartesian   -0.04
    309 y         -2.433988     -2.410504     0.023484    Cartesian   -0.96
    309 z         -9.434252     -9.427373     0.006880    Cartesian   -0.07
    310 x         -0.251098     -0.236291     0.014808    Cartesian   -5.90
    310 y          3.946247      3.942132    -0.004116    Cartesian   -0.10
    310 z         -9.230331     -9.224558     0.005773    Cartesian   -0.06

  Time to end of optimisation  =      250.8504 seconds

  Timing analysis for GULP :

  Task / Subroutine                                          Time (Seconds)
  Calculation of reciprocal space energy and derivatives          0.0896
  Calculation of real space energy and derivatives                2.7541
  Calculation for region 1 energy and derivatives (2-b)          59.1462
  Calculation for region 2a energy                              175.3122
  Calculation for region 2b energy                                0.0861
  Calculation and manipulation of Hessian matrix                  0.0302
  Calculation of matrix inversion                                12.6114
  Global summation overhead                                       0.0004

  Dump file written as GaCl3.grs

  **** GULP has completed with   2 warnings - beware! ****

  Job Finished at 00:12.46 26th August     2021