  Job Started  at 14:48.09  1st December   2020

  Number of CPUs =     1

  Total number of configurations input =      1

*  Input for Configuration =   1                                               *

  Formula = ClONa3

  Number of irreducible atoms/shells =       5

  Total number atoms/shells =       7

  Dimensionality = 3               :  Bulk

  Symmetry :

  Crystal family                   :  Cubic
  Crystal class  (Groth - 1921)    :  Cubic Hexakisoctahedral

  Space group (centrosymmetric)    :  P M 3 M

  Patterson group                  :  P m -3 m

  Cartesian lattice vectors (Angstroms) :

        4.504000    0.000000    0.000000
        0.000000    4.504000    0.000000
        0.000000    0.000000    4.504000

  Cell parameters (Angstroms/Degrees):

  a =       4.5040    alpha =  90.0000
  b =       4.5040    beta  =  90.0000
  c =       4.5040    gamma =  90.0000

  Initial cell volume =          91.368216 Angs**3

  Temperature of configuration =   0.00     K

  Pressure of configuration =         0.000 GPa

  Fractional coordinates of asymmetric unit :

   No.  Atomic       x           y          z         Charge      Occupancy
        Label      (Frac)      (Frac)     (Frac)        (e)         (Frac)
      1 Cl    c    0.000000    0.000000    0.000000     1.48500    1.000000
      2 O     c    0.500000    0.500000    0.500000     0.18300    1.000000
      3 Na    c    0.500000    0.500000    0.000000     1.00000    1.000000
      4 Cl    s    0.000000    0.000000    0.000000    -2.48500    1.000000
      5 O     s    0.500000    0.500000    0.500000    -2.18300    1.000000

  Constraints :

  Constraint no.      Unconstrained     Constrained    Coefficient    Offset
                         Variable         Variable
           1              Strain 1        Strain 2       1.00000      0.0000
           2              Strain 1        Strain 3       1.00000      0.0000

*  General input information                                                   *

  Species output for all configurations :

  Species    Type    Atomic    Atomic    Charge       Radii (Angs)     Library
                     Number     Mass       (e)     Cova   Ionic  VDW   Symbol
    Na       Core       11      22.99   1.000000   0.970  0.000  2.300
    O        Core        8      16.00   0.183000   0.730  0.000  1.360
    O        Shell       8       0.00  -2.183000   0.730  0.000  1.360
    Cl       Core       17      35.45   1.485000   0.990  0.000  1.650
    Cl       Shell      17       0.00  -2.485000   0.990  0.000  1.650
    Mg       Core       12      24.31   0.415000   1.100  0.000  0.000
    Mg       Shell      12       0.00   1.585000   1.100  0.000  0.000
    Ca       Core       20      40.08  -1.135000   0.990  0.000  0.000
    Ca       Shell      20       0.00   3.135000   0.990  0.000  0.000
    Sr       Core       38      87.62  -1.251000   1.120  0.000  0.000
    Sr       Shell      38       0.00   3.251000   1.120  0.000  0.000
    Ba       Core       56     137.33  -7.203000   1.340  0.000  0.000
    Ba       Shell      56       0.00   9.203000   1.340  0.000  0.000

  Lattice summation method               =    Ewald          (3-D)
                                         =    Parry          (2-D)
                                         =    Saunders et al (1-D)
  Accuracy factor for lattice sums       =   12.000

  Analytic derivatives to be used

  Time limit = Infinity

  Maximum range for interatomic potentials =    100000.000000 Angstroms

  General interatomic potentials :

Atom  Types   Potential      Parameter       Value         Units   Cutoffs(Ang)
  1     2                                                            Min /  Max
O    c O    s Spring (c-s)  Spring k 2       593.71600    eV*Ang^-2 0.000  0.800
                            Spring k 4       0.0000000    eV*Ang^-4
Cl   c Cl   s Spring (c-s)  Spring k 2       29.380000    eV*Ang^-2 0.000  0.800
                            Spring k 4       0.0000000    eV*Ang^-4
Mg   c Mg   s Spring (c-s)  Spring k 2       361.60000    eV*Ang^-2 0.000  0.800
                            Spring k 4       0.0000000    eV*Ang^-4
Ca   c Ca   s Spring (c-s)  Spring k 2       110.20000    eV*Ang^-2 0.000  0.800
                            Spring k 4       0.0000000    eV*Ang^-4
Sr   c Sr   s Spring (c-s)  Spring k 2       71.700000    eV*Ang^-2 0.000  0.800
                            Spring k 4       0.0000000    eV*Ang^-4
Ba   c Ba   s Spring (c-s)  Spring k 2       495.20000    eV*Ang^-2 0.000  0.800
                            Spring k 4       0.0000000    eV*Ang^-4
Na   c Na   c Buckingham    Buckingham A     1788.1900    eV        0.000 12.000
                            Buckingham rho  0.15900000    Ang
                            Buckingham C     0.0000000    eV*Ang^6
Na   c O    s Buckingham    Buckingham A     1226.8400    eV        0.000 12.000
                            Buckingham rho  0.30700000    Ang
                            Buckingham C     0.0000000    eV*Ang^6
Na   c Cl   s Buckingham    Buckingham A     2314.7000    eV        0.000 12.000
                            Buckingham rho  0.29000000    Ang
                            Buckingham C     0.0000000    eV*Ang^6
O    s O    s Buckingham    Buckingham A     22764.300    eV        0.000 12.000
                            Buckingham rho  0.14900000    Ang
                            Buckingham C     13.190000    eV*Ang^6
O    s Cl   s Buckingham    Buckingham A     8286.9100    eV        0.000 12.000
                            Buckingham rho  0.25900000    Ang
                            Buckingham C     62.200000    eV*Ang^6
Cl   s Cl   s Buckingham    Buckingham A     1227.2000    eV        0.000 12.000
                            Buckingham rho  0.32100000    Ang
                            Buckingham C     14.530000    eV*Ang^6
O    s Mg   s Buckingham    Buckingham A     1428.5000    eV        0.000 12.000
                            Buckingham rho  0.29450000    Ang
                            Buckingham C     0.0000000    eV*Ang^6
Mg   s Cl   s Buckingham    Buckingham A     4914.5400    eV        0.000 12.000
                            Buckingham rho  0.25700000    Ang
                            Buckingham C     0.0000000    eV*Ang^6
O    s Ca   s Buckingham    Buckingham A     1090.4000    eV        0.000 12.000
                            Buckingham rho  0.34370000    Ang
                            Buckingham C     0.0000000    eV*Ang^6
Cl   s Ca   s Buckingham    Buckingham A     2302.0000    eV        0.000 12.000
                            Buckingham rho  0.34020000    Ang
                            Buckingham C     0.0000000    eV*Ang^6
O    s Sr   s Buckingham    Buckingham A     959.10000    eV        0.000 12.000
                            Buckingham rho  0.37210000    Ang
                            Buckingham C     0.0000000    eV*Ang^6
Cl   s Sr   s Buckingham    Buckingham A     2191.0900    eV        0.000 12.000
                            Buckingham rho  0.34570000    Ang
                            Buckingham C     0.0000000    eV*Ang^6
O    s Ba   s Buckingham    Buckingham A     905.70000    eV        0.000 12.000
                            Buckingham rho  0.39760000    Ang
                            Buckingham C     0.0000000    eV*Ang^6
Cl   s Ba   s Buckingham    Buckingham A     2704.5500    eV        0.000 12.000
                            Buckingham rho  0.35280000    Ang
                            Buckingham C     0.0000000    eV*Ang^6

*  Output for configuration   1                                                *

  Components of energy :

  Interatomic potentials     =           5.13022605 eV
  Monopole - monopole (real) =         -10.03624526 eV
  Monopole - monopole (recip)=         -29.53581274 eV
  Monopole - monopole (total)=         -39.57205800 eV
  Total lattice energy       =         -34.44183194 eV
  Total lattice energy       =           -3323.1103 kJ/(mole unit cells)

  Number of variables =        1

  Maximum number of calculations  =          1000
  Maximum Hessian update interval =            10
  Maximum step size               =   1.000000000
  Maximum parameter tolerance     =   0.000010000
  Maximum function  tolerance     =   0.000010000
  Maximum gradient  tolerance     =   0.001000000
  Maximum gradient  component     =   0.010000000

  Symmetry constrained optimisation

  Symmetry used for second derivatives

  Cell parameters to be optimised using strains

  Newton-Raphson optimiser to be used

  BFGS hessian update to be used

  Lower half triangular hessian to be used

  Start of bulk optimisation :

  ** Hessian calculated **

  **** Optimisation achieved ****

  Final energy =     -34.44191447 eV
  Final Gnorm  =       0.00000000

  Components of energy :

  Interatomic potentials     =           5.09689708 eV
  Monopole - monopole (real) =         -10.02781331 eV
  Monopole - monopole (recip)=         -29.51099824 eV
  Monopole - monopole (total)=         -39.53881155 eV
  Total lattice energy       =         -34.44191447 eV
  Total lattice energy       =           -3323.1183 kJ/(mole unit cells)

  Final asymmetric unit coordinates :

   No.  Atomic        x           y           z         Radius
        Label       (Frac)      (Frac)      (Frac)       (Angs)
     1  Cl    c     0.000000    0.000000    0.000000    0.000000
     2  O     c     0.500000    0.500000    0.500000    0.000000
     3  Na    c     0.500000    0.500000    0.000000    0.000000
     4  Cl    s     0.000000    0.000000    0.000000    0.000000
     5  O     s     0.500000    0.500000    0.500000    0.000000

  Final Cartesian lattice vectors (Angstroms) :

        4.507787    0.000000    0.000000
        0.000000    4.507787    0.000000
        0.000000    0.000000    4.507787

  Final cell parameters and derivatives :

       a            4.507787 Angstrom     dE/de1(xx)     0.000000 eV/strain
       b            4.507787 Angstrom     dE/de2(yy)     0.000000 eV/strain
       c            4.507787 Angstrom     dE/de3(zz)     0.000000 eV/strain
       alpha       90.000000 Degrees      dE/de4(yz)     0.000000 eV/strain
       beta        90.000000 Degrees      dE/de5(xz)     0.000000 eV/strain
       gamma       90.000000 Degrees      dE/de6(xy)     0.000000 eV/strain

  Primitive cell volume =            91.598892 Angs**3

  Density of cell =      2.183054 g/cm**3

  Non-primitive cell volume =            91.598892 Angs**3

  Final internal derivatives :

   No.  Atomic          a             b             c           Radius
        Label          (eV)          (eV)          (eV)        (eV/Angs)
      1 Cl    c       0.000000      0.000000      0.000000      0.000000
      2 O     c       0.000000      0.000000      0.000000      0.000000
      3 Na    c       0.000000      0.000000      0.000000      0.000000
      4 Cl    s       0.000000      0.000000      0.000000      0.000000
      5 O     s       0.000000      0.000000      0.000000      0.000000
  Maximum abs         0.000000      0.000000      0.000000      0.000000

  Comparison of initial and final structures :

[...]
    110 z          9.015574      9.004628    -0.010947    Cartesian   -0.12
    111 x         13.523362     13.576527     0.053166    Cartesian    0.39
    111 y          0.000000     -0.010427    -0.010427    Cartesian    0.00
    111 z          0.000000     -0.010427    -0.010427    Cartesian    0.00
    112 x         13.523362     13.507162    -0.016199    Cartesian   -0.12
    112 y          2.253894      2.161416    -0.092478    Cartesian   -4.10
    112 z          2.253894      2.161416    -0.092478    Cartesian   -4.10
    113 x          4.507787      4.521661     0.013874    Cartesian    0.31
    113 y          9.015574      9.032389     0.016815    Cartesian    0.19
    113 z          9.015574      9.032389     0.016815    Cartesian    0.19
    114 x          4.507787      4.506236    -0.001551    Cartesian   -0.03
    114 y         -6.761681     -6.754410     0.007271    Cartesian   -0.11
    114 z         -6.761681     -6.754410     0.007271    Cartesian   -0.11
    115 x          2.253894      2.253894     0.000000    Cartesian    0.00
    115 y          6.761681      6.761148    -0.000533    Cartesian   -0.01
    115 z         11.269468     11.264850    -0.004618    Cartesian   -0.04
    116 x         -2.253894     -2.256599    -0.002706    Cartesian    0.12
    116 y         11.269468     11.269799     0.000331    Cartesian    0.00
    116 z         -2.253894     -2.261013    -0.007120    Cartesian    0.32
    117 x          2.253894      2.253894     0.000000    Cartesian    0.00
    117 y          6.761681      6.872634     0.110953    Cartesian    1.64
    117 z         -9.015574     -9.000822     0.014753    Cartesian   -0.16
    118 x          2.253894      2.253894     0.000000    Cartesian    0.00
    118 y         11.269468     11.361975     0.092507    Cartesian    0.82
    118 z         -4.507787     -4.513273    -0.005486    Cartesian    0.12
    119 x         -2.253894     -2.197910     0.055984    Cartesian   -2.48
    119 y         11.269468     11.314722     0.045254    Cartesian    0.40
    119 z          4.507787      4.512220     0.004432    Cartesian    0.10
    120 x         -2.253894     -2.220463     0.033430    Cartesian   -1.48
    120 y         -9.015574     -9.005209     0.010365    Cartesian   -0.11
    120 z         -2.253894     -2.210173     0.043720    Cartesian   -1.94
    121 x         13.523362     13.571516     0.048154    Cartesian    0.36
    121 y          0.000000      0.002742     0.002742    Cartesian    0.00
    121 z          4.507787      4.512194     0.004407    Cartesian    0.10
    122 x         13.523362     13.505179    -0.018183    Cartesian   -0.13
    122 y          2.253894      2.314331     0.060438    Cartesian    2.68
    122 z         -2.253894     -2.146064     0.107830    Cartesian   -4.78
    123 x          4.507787      4.522385     0.014598    Cartesian    0.32
    123 y         -4.507787     -4.529857    -0.022070    Cartesian    0.49
    123 z         -9.015574     -9.030221    -0.014647    Cartesian    0.16
    124 x          9.015574      9.053194     0.037620    Cartesian    0.42
    124 y          9.015574      9.039993     0.024418    Cartesian    0.27
    124 z         -4.507787     -4.506802     0.000985    Cartesian   -0.02
    125 x          4.507787      4.506023    -0.001764    Cartesian   -0.04
    125 y          6.761681      6.782320     0.020639    Cartesian    0.31
    125 z         11.269468     11.203173    -0.066295    Cartesian   -0.59
    126 x          9.015574      9.014609    -0.000966    Cartesian   -0.01
    126 y         -6.761681     -6.743725     0.017956    Cartesian   -0.27
    126 z          6.761681      6.749472    -0.012209    Cartesian   -0.18
    127 x          2.253894      2.253894     0.000000    Cartesian    0.00
    127 y          2.253894      2.597756     0.343863    Cartesian   15.26
    127 z          2.253894      2.597756     0.343863    Cartesian   15.26
    128 x          4.507787      4.580043     0.072256    Cartesian    1.60
    128 y          0.000000     -0.019540    -0.019540    Cartesian    0.00
    128 z          0.000000     -0.019540    -0.019540    Cartesian    0.00
    129 x          2.253894      2.253894     0.000000    Cartesian    0.00
    129 y          2.253894      2.303494     0.049601    Cartesian    2.20
    129 z         -2.253894     -2.230228     0.023666    Cartesian   -1.05
    130 x          4.507787      4.632914     0.125127    Cartesian    2.78
    130 y          0.000000      0.035902     0.035902    Cartesian    0.00
    130 z          4.507787      4.672467     0.164680    Cartesian    3.65
    131 x         -2.253894     -2.250361     0.003533    Cartesian   -0.16
    131 y          2.253894      2.310666     0.056772    Cartesian    2.52
    131 z          2.253894      2.310666     0.056772    Cartesian    2.52
    132 x          2.253894      2.253894     0.000000    Cartesian    0.00
    132 y         -2.253894     -2.225733     0.028160    Cartesian   -1.25
    132 z         -2.253894     -2.225733     0.028160    Cartesian   -1.25
    133 x          4.507787      4.682451     0.174664    Cartesian    3.87
    133 y          4.507787      4.653703     0.145915    Cartesian    3.24
    133 z          4.507787      4.653703     0.145915    Cartesian    3.24
    134 x          2.253894      2.253894     0.000000    Cartesian    0.00
    134 y          2.253894      2.215242    -0.038652    Cartesian   -1.71
    134 z          6.761681      6.867030     0.105349    Cartesian    1.56
    135 x         -2.253894     -2.206091     0.047803    Cartesian   -2.12
    135 y          2.253894      2.273054     0.019160    Cartesian    0.85
    135 z         -2.253894     -2.204304     0.049589    Cartesian   -2.20
    136 x          4.507787      4.564285     0.056497    Cartesian    1.25
    136 y          0.000000     -0.108254    -0.108254    Cartesian    0.00
    136 z         -4.507787     -4.573274    -0.065486    Cartesian    1.45
    137 x          2.253894      2.253894     0.000000    Cartesian    0.00
    137 y          6.761681      6.737490    -0.024190    Cartesian   -0.36
    137 z         -2.253894     -2.224631     0.029262    Cartesian   -1.30
    138 x          6.761681      6.756454    -0.005227    Cartesian   -0.08
    138 y         -2.253894     -2.241413     0.012480    Cartesian   -0.55
    138 z         -2.253894     -2.241413     0.012480    Cartesian   -0.55
    139 x          4.507787      4.564514     0.056727    Cartesian    1.26
    139 y          4.507787      4.601677     0.093890    Cartesian    2.08
    139 z         -4.507787     -4.628534    -0.120747    Cartesian    2.68
    140 x          9.015574      9.007797    -0.007777    Cartesian   -0.09
    140 y          0.000000      0.032601     0.032601    Cartesian    0.00
    140 z          0.000000      0.032601     0.032601    Cartesian    0.00
    141 x         -2.253894     -2.270565    -0.016671    Cartesian    0.74
    141 y          2.253894      2.256984     0.003090    Cartesian    0.14
    141 z          6.761681      6.810201     0.048521    Cartesian    0.72
    142 x          9.015574      9.021054     0.005479    Cartesian    0.06
    142 y          0.000000      0.061586     0.061586    Cartesian    0.00
    142 z          4.507787      4.512469     0.004681    Cartesian    0.10
    143 x          2.253894      2.253894     0.000000    Cartesian    0.00
    143 y          6.761681      6.715200    -0.046481    Cartesian   -0.69
    143 z          6.761681      6.715200    -0.046481    Cartesian   -0.69
    144 x         -2.253894     -2.260449    -0.006555    Cartesian    0.29
    144 y         -2.253894     -2.258980    -0.005086    Cartesian    0.23
    144 z          6.761681      6.773353     0.011673    Cartesian    0.17
    145 x          2.253894      2.253894     0.000000    Cartesian    0.00
    145 y          2.253894      2.263981     0.010087    Cartesian    0.45
    145 z         -6.761681     -6.748778     0.012903    Cartesian   -0.19
    146 x          4.507787      4.485862    -0.021926    Cartesian   -0.49
    146 y         -4.507787     -4.495482     0.012305    Cartesian   -0.27
    146 z         -4.507787     -4.495482     0.012305    Cartesian   -0.27
    147 x          4.507787      4.556551     0.048764    Cartesian    1.08
    147 y          0.000000     -0.013436    -0.013436    Cartesian    0.00
    147 z          9.015574      9.077007     0.061432    Cartesian    0.68
    148 x          9.015574      9.069498     0.053923    Cartesian    0.60
    148 y          4.507787      4.531218     0.023430    Cartesian    0.52
    148 z          4.507787      4.531218     0.023430    Cartesian    0.52
    149 x          2.253894      2.253894     0.000000    Cartesian    0.00
    149 y         -2.253894     -2.236924     0.016969    Cartesian   -0.75
    149 z         -6.761681     -6.739033     0.022648    Cartesian   -0.33
    150 x          4.507787      4.517404     0.009617    Cartesian    0.21
    150 y          4.507787      4.515079     0.007291    Cartesian    0.16
    150 z          9.015574      9.080862     0.065288    Cartesian    0.72
    151 x          9.015574      9.051617     0.036042    Cartesian    0.40
    151 y          0.000000     -0.011148    -0.011148    Cartesian    0.00
    151 z         -4.507787     -4.498505     0.009283    Cartesian   -0.21
    152 x          6.761681      6.778113     0.016432    Cartesian    0.24
    152 y          6.761681      6.769169     0.007488    Cartesian    0.11
    152 z          6.761681      6.769169     0.007488    Cartesian    0.11
    153 x          6.761681      6.740666    -0.021014    Cartesian   -0.31
    153 y         -6.761681     -6.725079     0.036602    Cartesian   -0.54
    153 z          2.253894      2.257408     0.003515    Cartesian    0.16
    154 x         11.269468     11.250782    -0.018686    Cartesian   -0.17
    154 y          2.253894      2.254305     0.000412    Cartesian    0.02
    154 z          2.253894      2.254305     0.000412    Cartesian    0.02
    155 x          9.015574      9.062723     0.047148    Cartesian    0.52
    155 y          4.507787      4.530575     0.022787    Cartesian    0.51
    155 z         -4.507787     -4.491360     0.016427    Cartesian   -0.36
    156 x          2.253894      2.253894     0.000000    Cartesian    0.00
    156 y          6.761681      6.750995    -0.010686    Cartesian   -0.16
    156 z         -6.761681     -6.742778     0.018903    Cartesian   -0.28
    157 x         11.269468     11.238869    -0.030599    Cartesian   -0.27
    157 y         -2.253894     -2.254769    -0.000875    Cartesian    0.04
    157 z          2.253894      2.255741     0.001848    Cartesian    0.08
    158 x         -2.253894     -2.263407    -0.009514    Cartesian    0.42
    158 y         -2.253894     -2.251634     0.002259    Cartesian   -0.10
    158 z         -6.761681     -6.753720     0.007961    Cartesian   -0.12
    159 x          4.507787      4.515158     0.007371    Cartesian    0.16
    159 y          9.015574      9.092561     0.076986    Cartesian    0.85
    159 z         -4.507787     -4.513384    -0.005597    Cartesian    0.12
    160 x          2.253894      2.253894     0.000000    Cartesian    0.00
    160 y         11.269468     11.280447     0.010979    Cartesian    0.10
    160 z          2.253894      2.264758     0.010864    Cartesian    0.48
    161 x         11.269468     11.267720    -0.001748    Cartesian   -0.02
    161 y         -2.253894     -2.237160     0.016734    Cartesian   -0.74
    161 z         -2.253894     -2.237160     0.016734    Cartesian   -0.74
    162 x          9.015574      9.023116     0.007542    Cartesian    0.08
    162 y         -4.507787     -4.527786    -0.019999    Cartesian    0.44
    162 z         -4.507787     -4.527786    -0.019999    Cartesian    0.44
    163 x          4.507787      4.498030    -0.009757    Cartesian   -0.22
    163 y          0.000000      0.025063     0.025063    Cartesian    0.00
    163 z         -9.015574     -9.082944    -0.067370    Cartesian    0.75
    164 x          9.015574      9.062061     0.046487    Cartesian    0.52
    164 y          0.000000     -0.002150    -0.002150    Cartesian    0.00
    164 z          9.015574      9.027245     0.011671    Cartesian    0.13
    165 x          6.761681      6.769095     0.007414    Cartesian    0.11
    165 y          6.761681      6.761897     0.000217    Cartesian    0.00
    165 z         -6.761681     -6.766237    -0.004556    Cartesian    0.07
    166 x         11.269468     11.283109     0.013641    Cartesian    0.12
    166 y          2.253894      2.250180    -0.003713    Cartesian   -0.16
    166 z          6.761681      6.758671    -0.003009    Cartesian   -0.04
    167 x          2.253894      2.253894     0.000000    Cartesian    0.00
    167 y         11.269468     11.254591    -0.014877    Cartesian   -0.13
    167 z         -2.253894     -2.270998    -0.017104    Cartesian    0.76
    168 x          4.507787      4.522339     0.014552    Cartesian    0.32
    168 y          4.507787      4.509399     0.001612    Cartesian    0.04
    168 z         -9.015574     -9.016940    -0.001366    Cartesian    0.02
    169 x          9.015574      9.041474     0.025900    Cartesian    0.29
    169 y          9.015574      9.041116     0.025542    Cartesian    0.28
    169 z          4.507787      4.507405    -0.000382    Cartesian   -0.01
    170 x         11.269468     11.264826    -0.004642    Cartesian   -0.04
    170 y         -2.253894     -2.253863     0.000031    Cartesian   -0.00
    170 z          6.761681      6.768457     0.006776    Cartesian    0.10
    171 x         -2.253894     -2.260141    -0.006248    Cartesian    0.28
    171 y         11.269468     11.279111     0.009643    Cartesian    0.09
    171 z          2.253894      2.258852     0.004958    Cartesian    0.22
    172 x          2.253894      2.253894     0.000000    Cartesian    0.00
    172 y         -6.761681     -6.759207     0.002474    Cartesian   -0.04
    172 z         -6.761681     -6.759207     0.002474    Cartesian   -0.04
    173 x         13.523362     13.583272     0.059910    Cartesian    0.44
    173 y          0.000000     -0.010855    -0.010855    Cartesian    0.00
    173 z          0.000000     -0.010855    -0.010855    Cartesian    0.00
    174 x          4.507787      4.523871     0.016083    Cartesian    0.36
    174 y          9.015574      9.035443     0.019868    Cartesian    0.22
    174 z          9.015574      9.035443     0.019868    Cartesian    0.22
    175 x          2.253894      2.253894     0.000000    Cartesian    0.00
    175 y          6.761681      6.761132    -0.000548    Cartesian   -0.01
    175 z         11.269468     11.264883    -0.004585    Cartesian   -0.04
    176 x         -2.253894     -2.256597    -0.002704    Cartesian    0.12
    176 y         11.269468     11.269793     0.000325    Cartesian    0.00
    176 z         -2.253894     -2.261040    -0.007147    Cartesian    0.32
    177 x         13.523362     13.577231     0.053870    Cartesian    0.40
    177 y          0.000000      0.003118     0.003118    Cartesian    0.00
    177 z          4.507787      4.511597     0.003810    Cartesian    0.08
    178 x          4.507787      4.524440     0.016653    Cartesian    0.37
    178 y         -4.507787     -4.533581    -0.025794    Cartesian    0.57
    178 z         -9.015574     -9.031919    -0.016344    Cartesian    0.18
    179 x          9.015574      9.057307     0.041732    Cartesian    0.46
    179 y          9.015574      9.041525     0.025951    Cartesian    0.29
    179 z         -4.507787     -4.504611     0.003177    Cartesian   -0.07

  Time to end of optimisation  =       66.7135 seconds

  Timing analysis for GULP :

  Task / Subroutine                                          Time (Seconds)
  Calculation of reciprocal space energy and derivatives          0.0004
  Calculation of reciprocal space energy using symmetry           0.0005
  Calculation of real space energy and derivatives                0.0024
  Calculation of real space energy using symmetry                 0.0054
  Calculation for region 1 energy and derivatives (2-b)          19.4650
  Calculation for region 2a energy                               44.6622
  Calculation for region 2b energy                                0.0145
  Calculation and manipulation of Hessian matrix                  2.2451
  Calculation of matrix inversion                                 0.2011
  Symmetry generation of equivalent positions                     0.0026

  Dump file written as Na3OCl.grs

  Job Finished at 14:49.18  1st December   2020