  Job Started  at 13:51.10  1st December   2020

  Number of CPUs =     1

  Total number of configurations input =      1

*  Input for Configuration =   1                                               *

  Formula = ClONa3

  Number of irreducible atoms/shells =       5

  Total number atoms/shells =       7

  Dimensionality = 3               :  Bulk

  Symmetry :

  Crystal family                   :  Cubic
  Crystal class  (Groth - 1921)    :  Cubic Hexakisoctahedral

  Space group (centrosymmetric)    :  P M 3 M

  Patterson group                  :  P m -3 m

  Cartesian lattice vectors (Angstroms) :

        4.504000    0.000000    0.000000
        0.000000    4.504000    0.000000
        0.000000    0.000000    4.504000

  Cell parameters (Angstroms/Degrees):

  a =       4.5040    alpha =  90.0000
  b =       4.5040    beta  =  90.0000
  c =       4.5040    gamma =  90.0000

  Initial cell volume =          91.368216 Angs**3

  Temperature of configuration =   0.00     K

  Pressure of configuration =         0.000 GPa

  Fractional coordinates of asymmetric unit :

   No.  Atomic       x           y          z         Charge      Occupancy
        Label      (Frac)      (Frac)     (Frac)        (e)         (Frac)
      1 Cl    c    0.000000    0.000000    0.000000     1.48500    1.000000
      2 O     c    0.500000    0.500000    0.500000     0.18300    1.000000
      3 Na    c    0.500000    0.500000    0.000000     1.00000    1.000000
      4 Cl    s    0.000000    0.000000    0.000000    -2.48500    1.000000
      5 O     s    0.500000    0.500000    0.500000    -2.18300    1.000000

  Constraints :

  Constraint no.      Unconstrained     Constrained    Coefficient    Offset
                         Variable         Variable
           1              Strain 1        Strain 2       1.00000      0.0000
           2              Strain 1        Strain 3       1.00000      0.0000

*  General input information                                                   *

  Species output for all configurations :

  Species    Type    Atomic    Atomic    Charge       Radii (Angs)     Library
                     Number     Mass       (e)     Cova   Ionic  VDW   Symbol
    Na       Core       11      22.99   1.000000   0.970  0.000  2.300
    O        Core        8      16.00   0.183000   0.730  0.000  1.360
    O        Shell       8       0.00  -2.183000   0.730  0.000  1.360
    Cl       Core       17      35.45   1.485000   0.990  0.000  1.650
    Cl       Shell      17       0.00  -2.485000   0.990  0.000  1.650
    Mg       Core       12      24.31   0.415000   1.100  0.000  0.000
    Mg       Shell      12       0.00   1.585000   1.100  0.000  0.000
    Ca       Core       20      40.08  -1.135000   0.990  0.000  0.000
    Ca       Shell      20       0.00   3.135000   0.990  0.000  0.000
    Sr       Core       38      87.62  -1.251000   1.120  0.000  0.000
    Sr       Shell      38       0.00   3.251000   1.120  0.000  0.000
    Ba       Core       56     137.33  -7.203000   1.340  0.000  0.000
    Ba       Shell      56       0.00   9.203000   1.340  0.000  0.000

  Lattice summation method               =    Ewald          (3-D)
                                         =    Parry          (2-D)
                                         =    Saunders et al (1-D)
  Accuracy factor for lattice sums       =   12.000

  Analytic derivatives to be used

  Time limit = Infinity

  Maximum range for interatomic potentials =    100000.000000 Angstroms

  General interatomic potentials :

Atom  Types   Potential      Parameter       Value         Units   Cutoffs(Ang)
  1     2                                                            Min /  Max
O    c O    s Spring (c-s)  Spring k 2       593.71600    eV*Ang^-2 0.000  0.800
                            Spring k 4       0.0000000    eV*Ang^-4
Cl   c Cl   s Spring (c-s)  Spring k 2       29.380000    eV*Ang^-2 0.000  0.800
                            Spring k 4       0.0000000    eV*Ang^-4
Mg   c Mg   s Spring (c-s)  Spring k 2       361.60000    eV*Ang^-2 0.000  0.800
                            Spring k 4       0.0000000    eV*Ang^-4
Ca   c Ca   s Spring (c-s)  Spring k 2       110.20000    eV*Ang^-2 0.000  0.800
                            Spring k 4       0.0000000    eV*Ang^-4
Sr   c Sr   s Spring (c-s)  Spring k 2       71.700000    eV*Ang^-2 0.000  0.800
                            Spring k 4       0.0000000    eV*Ang^-4
Ba   c Ba   s Spring (c-s)  Spring k 2       495.20000    eV*Ang^-2 0.000  0.800
                            Spring k 4       0.0000000    eV*Ang^-4
Na   c Na   c Buckingham    Buckingham A     1788.1900    eV        0.000 12.000
                            Buckingham rho  0.15900000    Ang
                            Buckingham C     0.0000000    eV*Ang^6
Na   c O    s Buckingham    Buckingham A     1226.8400    eV        0.000 12.000
                            Buckingham rho  0.30700000    Ang
                            Buckingham C     0.0000000    eV*Ang^6
Na   c Cl   s Buckingham    Buckingham A     2314.7000    eV        0.000 12.000
                            Buckingham rho  0.29000000    Ang
                            Buckingham C     0.0000000    eV*Ang^6
O    s O    s Buckingham    Buckingham A     22764.300    eV        0.000 12.000
                            Buckingham rho  0.14900000    Ang
                            Buckingham C     13.190000    eV*Ang^6
O    s Cl   s Buckingham    Buckingham A     8286.9100    eV        0.000 12.000
                            Buckingham rho  0.25900000    Ang
                            Buckingham C     62.200000    eV*Ang^6
Cl   s Cl   s Buckingham    Buckingham A     1227.2000    eV        0.000 12.000
                            Buckingham rho  0.32100000    Ang
                            Buckingham C     14.530000    eV*Ang^6
O    s Mg   s Buckingham    Buckingham A     1428.5000    eV        0.000 12.000
                            Buckingham rho  0.29450000    Ang
                            Buckingham C     0.0000000    eV*Ang^6
Mg   s Cl   s Buckingham    Buckingham A     4914.5400    eV        0.000 12.000
                            Buckingham rho  0.25700000    Ang
                            Buckingham C     0.0000000    eV*Ang^6
O    s Ca   s Buckingham    Buckingham A     1090.4000    eV        0.000 12.000
                            Buckingham rho  0.34370000    Ang
                            Buckingham C     0.0000000    eV*Ang^6
Cl   s Ca   s Buckingham    Buckingham A     2302.0000    eV        0.000 12.000
                            Buckingham rho  0.34020000    Ang
                            Buckingham C     0.0000000    eV*Ang^6
O    s Sr   s Buckingham    Buckingham A     959.10000    eV        0.000 12.000
                            Buckingham rho  0.37210000    Ang
                            Buckingham C     0.0000000    eV*Ang^6
Cl   s Sr   s Buckingham    Buckingham A     2191.0900    eV        0.000 12.000
                            Buckingham rho  0.34570000    Ang
                            Buckingham C     0.0000000    eV*Ang^6
O    s Ba   s Buckingham    Buckingham A     905.70000    eV        0.000 12.000
                            Buckingham rho  0.39760000    Ang
                            Buckingham C     0.0000000    eV*Ang^6
Cl   s Ba   s Buckingham    Buckingham A     2704.5500    eV        0.000 12.000
                            Buckingham rho  0.35280000    Ang
                            Buckingham C     0.0000000    eV*Ang^6

*  Output for configuration   1                                                *

  Components of energy :

  Interatomic potentials     =           5.13022605 eV
  Monopole - monopole (real) =         -10.03624526 eV
  Monopole - monopole (recip)=         -29.53581274 eV
  Monopole - monopole (total)=         -39.57205800 eV
  Total lattice energy       =         -34.44183194 eV
  Total lattice energy       =           -3323.1103 kJ/(mole unit cells)

  Number of variables =        1

  Maximum number of calculations  =          1000
  Maximum Hessian update interval =            10
  Maximum step size               =   1.000000000
  Maximum parameter tolerance     =   0.000010000
  Maximum function  tolerance     =   0.000010000
  Maximum gradient  tolerance     =   0.001000000
  Maximum gradient  component     =   0.010000000

  Symmetry constrained optimisation

  Symmetry used for second derivatives

  Cell parameters to be optimised using strains

  Newton-Raphson optimiser to be used

  BFGS hessian update to be used

  Lower half triangular hessian to be used

  Start of bulk optimisation :

  ** Hessian calculated **

  **** Optimisation achieved ****

  Final energy =     -34.44191447 eV
  Final Gnorm  =       0.00000000

  Components of energy :

  Interatomic potentials     =           5.09689708 eV
  Monopole - monopole (real) =         -10.02781331 eV
  Monopole - monopole (recip)=         -29.51099824 eV
  Monopole - monopole (total)=         -39.53881155 eV
  Total lattice energy       =         -34.44191447 eV
  Total lattice energy       =           -3323.1183 kJ/(mole unit cells)

  Final asymmetric unit coordinates :

   No.  Atomic        x           y           z         Radius
        Label       (Frac)      (Frac)      (Frac)       (Angs)
     1  Cl    c     0.000000    0.000000    0.000000    0.000000
     2  O     c     0.500000    0.500000    0.500000    0.000000
     3  Na    c     0.500000    0.500000    0.000000    0.000000
     4  Cl    s     0.000000    0.000000    0.000000    0.000000
     5  O     s     0.500000    0.500000    0.500000    0.000000

  Final Cartesian lattice vectors (Angstroms) :

        4.507787    0.000000    0.000000
        0.000000    4.507787    0.000000
        0.000000    0.000000    4.507787

  Final cell parameters and derivatives :

       a            4.507787 Angstrom     dE/de1(xx)     0.000000 eV/strain
       b            4.507787 Angstrom     dE/de2(yy)     0.000000 eV/strain
       c            4.507787 Angstrom     dE/de3(zz)     0.000000 eV/strain
       alpha       90.000000 Degrees      dE/de4(yz)     0.000000 eV/strain
       beta        90.000000 Degrees      dE/de5(xz)     0.000000 eV/strain
       gamma       90.000000 Degrees      dE/de6(xy)     0.000000 eV/strain

  Primitive cell volume =            91.598892 Angs**3

  Density of cell =      2.183054 g/cm**3

  Non-primitive cell volume =            91.598892 Angs**3

  Final internal derivatives :

   No.  Atomic          a             b             c           Radius
        Label          (eV)          (eV)          (eV)        (eV/Angs)
      1 Cl    c       0.000000      0.000000      0.000000      0.000000
      2 O     c       0.000000      0.000000      0.000000      0.000000
      3 Na    c       0.000000      0.000000      0.000000      0.000000
      4 Cl    s       0.000000      0.000000      0.000000      0.000000
      5 O     s       0.000000      0.000000      0.000000      0.000000
  Maximum abs         0.000000      0.000000      0.000000      0.000000

  Comparison of initial and final structures :

[...]
    337 y         11.269468     11.256529    -0.012939    Cartesian   -0.11
    337 z         -2.253894     -2.257307    -0.003414    Cartesian    0.15
    338 x         13.523362     13.544959     0.021597    Cartesian    0.16
    338 y          0.000000     -0.024662    -0.024662    Cartesian    0.00
    338 z          4.507787      4.518486     0.010699    Cartesian    0.24
    339 x          4.507787      4.493271    -0.014516    Cartesian   -0.32
    339 y         -4.507787     -4.521131    -0.013344    Cartesian    0.30
    339 z         -9.015574     -9.033306    -0.017732    Cartesian    0.20
    340 x          9.015574      9.054317     0.038742    Cartesian    0.43
    340 y          9.015574      9.016802     0.001228    Cartesian    0.01
    340 z         -4.507787     -4.502502     0.005285    Cartesian   -0.12
    341 x         11.269468     11.273405     0.003937    Cartesian    0.03
    341 y          6.761681      6.759056    -0.002624    Cartesian   -0.04
    341 z          6.761681      6.759056    -0.002624    Cartesian   -0.04
    342 x         11.269468     11.258939    -0.010529    Cartesian   -0.09
    342 y         -6.761681     -6.752312     0.009369    Cartesian   -0.14
    342 z          2.253894      2.259699     0.005805    Cartesian    0.26
    343 x          6.761681      6.766473     0.004792    Cartesian    0.07
    343 y         -6.761681     -6.751428     0.010252    Cartesian   -0.15
    343 z         -6.761681     -6.751428     0.010252    Cartesian   -0.15
    344 x         13.523362     13.529268     0.005907    Cartesian    0.04
    344 y          4.507787      4.519042     0.011255    Cartesian    0.25
    344 z          4.507787      4.519042     0.011255    Cartesian    0.25
    345 x          9.015574      9.035219     0.019645    Cartesian    0.22
    345 y         -9.015574     -9.013345     0.002230    Cartesian   -0.02
    345 z          0.000000     -0.039864    -0.039864    Cartesian    0.00
    346 x          2.253894      2.253894     0.000000    Cartesian    0.00
    346 y          2.253894      2.256260     0.002366    Cartesian    0.10
    346 z        -11.269468    -11.256717     0.012751    Cartesian   -0.11
    347 x         11.269468     11.265328    -0.004140    Cartesian   -0.04
    347 y         -6.761681     -6.751973     0.009708    Cartesian   -0.14
    347 z         -2.253894     -2.233635     0.020259    Cartesian   -0.90
    348 x         -2.253894     -2.255840    -0.001947    Cartesian    0.09
    348 y         11.269468     11.263207    -0.006261    Cartesian   -0.06
    348 z          6.761681      6.744958    -0.016723    Cartesian   -0.25
    349 x         13.523362     13.546598     0.023237    Cartesian    0.17
    349 y          0.000000      0.016728     0.016728    Cartesian    0.00
    349 z         -4.507787     -4.521186    -0.013399    Cartesian    0.30
    350 x          4.507787      4.492559    -0.015228    Cartesian   -0.34
    350 y          0.000000     -0.011373    -0.011373    Cartesian    0.00
    350 z         13.523362     13.518415    -0.004947    Cartesian   -0.04
    351 x          9.015574      9.029708     0.014133    Cartesian    0.16
    351 y         -9.015574     -9.070534    -0.054960    Cartesian    0.61
    351 z          4.507787      4.490237    -0.017550    Cartesian   -0.39
    352 x          2.253894      2.253894     0.000000    Cartesian    0.00
    352 y         -2.253894     -2.237748     0.016145    Cartesian   -0.72
    352 z        -11.269468    -11.250814     0.018654    Cartesian   -0.17
    353 x          2.253894      2.253894     0.000000    Cartesian    0.00
    353 y         11.269468     11.265116    -0.004352    Cartesian   -0.04
    353 z         -6.761681     -6.739042     0.022639    Cartesian   -0.33
    354 x         13.523362     13.562321     0.038959    Cartesian    0.29
    354 y          4.507787      4.494335    -0.013452    Cartesian   -0.30
    354 z         -4.507787     -4.543976    -0.036189    Cartesian    0.80
    355 x          4.507787      4.538044     0.030257    Cartesian    0.67
    355 y          4.507787      4.483707    -0.024080    Cartesian   -0.53
    355 z         13.523362     13.556185     0.032824    Cartesian    0.24
    356 x          4.507787      4.511045     0.003258    Cartesian    0.07
    356 y          9.015574      9.058002     0.042427    Cartesian    0.47
    356 z         -9.015574     -9.040749    -0.025175    Cartesian    0.28
    357 x          9.015574      9.036147     0.020572    Cartesian    0.23
    357 y          9.015574      9.050634     0.035059    Cartesian    0.39
    357 z          9.015574      9.050634     0.035059    Cartesian    0.39
    358 x          6.761681      6.762388     0.000708    Cartesian    0.01
    358 y        -11.269468    -11.243921     0.025547    Cartesian   -0.23
    358 z          2.253894      2.255711     0.001818    Cartesian    0.08
    359 x         11.269468     11.276520     0.007052    Cartesian    0.06
    359 y         -6.761681     -6.736223     0.025458    Cartesian   -0.38
    359 z          6.761681      6.761429    -0.000252    Cartesian   -0.00
    360 x          9.015574      9.025308     0.009733    Cartesian    0.11
    360 y         -9.015574     -9.028018    -0.012444    Cartesian    0.14
    360 z         -4.507787     -4.537872    -0.030084    Cartesian    0.67
    361 x          2.253894      2.253894     0.000000    Cartesian    0.00
    361 y          6.761681      6.762899     0.001219    Cartesian    0.02
    361 z        -11.269468    -11.229529     0.039939    Cartesian   -0.35
    362 x          6.761681      6.767617     0.005936    Cartesian    0.09
    362 y        -11.269468    -11.247784     0.021684    Cartesian   -0.19
    362 z         -2.253894     -2.247934     0.005959    Cartesian   -0.26
    363 x          6.761681      6.761968     0.000287    Cartesian    0.00
    363 y         11.269468     11.237959    -0.031509    Cartesian   -0.28
    363 z         -6.761681     -6.765889    -0.004208    Cartesian    0.06
    364 x         11.269468     11.279311     0.009843    Cartesian    0.09
    364 y          2.253894      2.241687    -0.012206    Cartesian   -0.54
    364 z         11.269468     11.255001    -0.014467    Cartesian   -0.13
    365 x         15.777255     15.757470    -0.019786    Cartesian   -0.13
    365 y          2.253894      2.249234    -0.004660    Cartesian   -0.21
    365 z          2.253894      2.249234    -0.004660    Cartesian   -0.21
    366 x         13.523362     13.561172     0.037811    Cartesian    0.28
    366 y         -4.507787     -4.528977    -0.021190    Cartesian    0.47
    366 z         -4.507787     -4.528977    -0.021190    Cartesian    0.47
    367 x          4.507787      4.548269     0.040482    Cartesian    0.90
    367 y         13.523362     13.560673     0.037312    Cartesian    0.28
    367 z         -4.507787     -4.528887    -0.021100    Cartesian    0.47
    368 x         13.523362     13.592067     0.068706    Cartesian    0.51
    368 y          0.000000     -0.036798    -0.036798    Cartesian    0.00
    368 z          9.015574      9.027230     0.011656    Cartesian    0.13
    369 x         11.269468     11.250450    -0.019018    Cartesian   -0.17
    369 y         11.269468     11.261753    -0.007715    Cartesian   -0.07
    369 z         -2.253894     -2.252460     0.001434    Cartesian   -0.06
    370 x         15.777255     15.761384    -0.015871    Cartesian   -0.10
    370 y          2.253894      2.239669    -0.014224    Cartesian   -0.63
    370 z         -2.253894     -2.265331    -0.011437    Cartesian    0.51
    371 x          9.015574      9.037871     0.022297    Cartesian    0.25
    371 y         13.523362     13.560179     0.036818    Cartesian    0.27
    371 z          0.000000      0.017408     0.017408    Cartesian    0.00
    372 x         13.523362     13.543494     0.020132    Cartesian    0.15
    372 y          4.507787      4.517204     0.009416    Cartesian    0.21
    372 z          9.015574      9.038745     0.023171    Cartesian    0.26
    373 x          6.761681      6.776681     0.015000    Cartesian    0.22
    373 y        -11.269468    -11.257365     0.012103    Cartesian   -0.11
    373 z          6.761681      6.730795    -0.030886    Cartesian   -0.46
    374 x          2.253894      2.253894     0.000000    Cartesian    0.00
    374 y         11.269468     11.260427    -0.009041    Cartesian   -0.08
    374 z         11.269468     11.260427    -0.009041    Cartesian   -0.08
    375 x         11.269468     11.243946    -0.025522    Cartesian   -0.23
    375 y         -6.761681     -6.755187     0.006494    Cartesian   -0.10
    375 z         -6.761681     -6.755187     0.006494    Cartesian   -0.10
    376 x         15.777255     15.765756    -0.011499    Cartesian   -0.07
    376 y         -2.253894     -2.237178     0.016715    Cartesian   -0.74
    376 z         -2.253894     -2.237178     0.016715    Cartesian   -0.74
    377 x          9.015574      9.038944     0.023369    Cartesian    0.26
    377 y         13.523362     13.592258     0.068896    Cartesian    0.51
    377 z          4.507787      4.499180    -0.008608    Cartesian   -0.19
    378 x          4.507787      4.482897    -0.024890    Cartesian   -0.55
    378 y         -9.015574     -9.029614    -0.014040    Cartesian    0.16
    378 z         -9.015574     -9.029614    -0.014040    Cartesian    0.16
    379 x          9.015574      9.054742     0.039168    Cartesian    0.43
    379 y          9.015574      9.031069     0.015495    Cartesian    0.17
    379 z         -9.015574     -9.041079    -0.025504    Cartesian    0.28
    380 x          2.253894      2.253894     0.000000    Cartesian    0.00
    380 y          2.253894      2.231923    -0.021970    Cartesian   -0.97
    380 z         15.777255     15.773355    -0.003900    Cartesian   -0.02
    381 x          2.253894      2.253894     0.000000    Cartesian    0.00
    381 y         -6.761681     -6.754122     0.007559    Cartesian   -0.11
    381 z        -11.269468    -11.263153     0.006315    Cartesian   -0.06
    382 x         11.269468     11.259240    -0.010228    Cartesian   -0.09
    382 y          6.761681      6.747022    -0.014659    Cartesian   -0.22
    382 z         11.269468     11.272367     0.002898    Cartesian    0.03
    383 x         15.777255     15.774170    -0.003085    Cartesian   -0.02
    383 y          2.253894      2.246026    -0.007867    Cartesian   -0.35
    383 z          6.761681      6.734032    -0.027649    Cartesian   -0.41
    384 x          4.507787      4.553777     0.045989    Cartesian    1.02
    384 y          0.000000      0.016092     0.016092    Cartesian    0.00
    384 z        -13.523362    -13.547276    -0.023915    Cartesian    0.18
    385 x         13.523362     13.553804     0.030442    Cartesian    0.23
    385 y          9.015574      9.044914     0.029340    Cartesian    0.33
    385 z         -4.507787     -4.521275    -0.013487    Cartesian    0.30
    386 x          4.507787      4.494611    -0.013176    Cartesian   -0.29
    386 y          9.015574      9.004401    -0.011173    Cartesian   -0.12
    386 z         13.523362     13.552897     0.029536    Cartesian    0.22
    387 x          2.253894      2.253894     0.000000    Cartesian    0.00
    387 y         15.777255     15.766685    -0.010570    Cartesian   -0.07
    387 z         -2.253894     -2.230385     0.023508    Cartesian   -1.04
    388 x          6.761681      6.770104     0.008423    Cartesian    0.12
    388 y         11.269468     11.269470     0.000002    Cartesian    0.00
    388 z         11.269468     11.269470     0.000002    Cartesian    0.00
    389 x         15.777255     15.771154    -0.006101    Cartesian   -0.04
    389 y          6.761681      6.766646     0.004965    Cartesian    0.07
    389 z         -2.253894     -2.233095     0.020798    Cartesian   -0.92
    390 x          4.507787      4.485171    -0.022616    Cartesian   -0.50
    390 y          4.507787      4.516746     0.008959    Cartesian    0.20
    390 z        -13.523362    -13.557734    -0.034372    Cartesian    0.25
    391 x          9.015574      8.998158    -0.017417    Cartesian   -0.19
    391 y         13.523362     13.565282     0.041921    Cartesian    0.31
    391 z         -4.507787     -4.511065    -0.003278    Cartesian    0.07
    392 x         13.523362     13.543613     0.020252    Cartesian    0.15
    392 y          0.000000     -0.008950    -0.008950    Cartesian    0.00
    392 z         -9.015574     -9.048531    -0.032956    Cartesian    0.37
    393 x          6.761681      6.769608     0.007927    Cartesian    0.12
    393 y         15.777255     15.770144    -0.007111    Cartesian   -0.05
    393 z          2.253894      2.270714     0.016820    Cartesian    0.75
    394 x          6.761681      6.756680    -0.005000    Cartesian   -0.07
    394 y         -6.761681     -6.752946     0.008735    Cartesian   -0.13
    394 z        -11.269468    -11.276094    -0.006626    Cartesian    0.06
    395 x         11.269468     11.273704     0.004236    Cartesian    0.04
    395 y          2.253894      2.263025     0.009131    Cartesian    0.41
    395 z        -11.269468    -11.251852     0.017616    Cartesian   -0.16
    396 x         13.523362     13.550439     0.027078    Cartesian    0.20
    396 y          4.507787      4.535940     0.028152    Cartesian    0.62
    396 z         -9.015574     -9.005381     0.010193    Cartesian   -0.11
    397 x          2.253894      2.253894     0.000000    Cartesian    0.00
    397 y          6.761681      6.763709     0.002028    Cartesian    0.03
    397 z         15.777255     15.766544    -0.010711    Cartesian   -0.07
    398 x          6.761681      6.757242    -0.004439    Cartesian   -0.07
    398 y         15.777255     15.763975    -0.013280    Cartesian   -0.08
    398 z         -2.253894     -2.263961    -0.010068    Cartesian    0.45
    399 x         11.269468     11.260761    -0.008707    Cartesian   -0.08
    399 y         -2.253894     -2.250901     0.002992    Cartesian   -0.13
    399 z        -11.269468    -11.267121     0.002347    Cartesian   -0.02
    400 x         11.269468     11.276886     0.007418    Cartesian    0.07
    400 y         -6.761681     -6.761852    -0.000171    Cartesian    0.00
    400 z         11.269468     11.253769    -0.015699    Cartesian   -0.14
    401 x         15.777255     15.757789    -0.019467    Cartesian   -0.12
    401 y          6.761681      6.770462     0.008781    Cartesian    0.13
    401 z          6.761681      6.770462     0.008781    Cartesian    0.13
    402 x         15.777255     15.779715     0.002459    Cartesian    0.02
    402 y          2.253894      2.261770     0.007876    Cartesian    0.35
    402 z         -6.761681     -6.753571     0.008110    Cartesian   -0.12
    403 x        -13.523362    -13.590500    -0.067138    Cartesian    0.50
    403 y          0.000000     -0.028535    -0.028535    Cartesian    0.00
    403 z          0.000000     -0.028535    -0.028535    Cartesian    0.00
    404 x          4.507787      4.513093     0.005305    Cartesian    0.12
    404 y         -4.507787     -4.501335     0.006452    Cartesian   -0.14
    404 z        -13.523362    -13.563002    -0.039640    Cartesian    0.29
    405 x          9.015574      9.032544     0.016969    Cartesian    0.19
    405 y         -9.015574     -9.034593    -0.019018    Cartesian    0.21
    405 z         -9.015574     -9.034593    -0.019018    Cartesian    0.21
    406 x         13.523362     13.570238     0.046876    Cartesian    0.35
    406 y          9.015574      9.020922     0.005347    Cartesian    0.06
    406 z          9.015574      9.020922     0.005347    Cartesian    0.06

  Time to end of optimisation  =      406.2886 seconds

  Timing analysis for GULP :

  Task / Subroutine                                          Time (Seconds)
  Calculation of reciprocal space energy and derivatives          0.0003
  Calculation of reciprocal space energy using symmetry           0.0006
  Calculation of real space energy and derivatives                0.0022
  Calculation of real space energy using symmetry                 0.0051
  Calculation for region 1 energy and derivatives (2-b)         247.4174
  Calculation for region 2b energy                                0.0269
  Calculation and manipulation of Hessian matrix                144.7521
  Calculation of matrix inversion                                12.8666
  Symmetry generation of equivalent positions                     0.0027

  Dump file written as Na3OCl.grs

  Job Finished at 13:58.03  1st December   2020