  Job Started  at 23:00.02 30th November   2020

  Number of CPUs =     1

  Total number of configurations input =      1

*  Input for Configuration =   1                                               *

  Formula = ClONa3

  Number of irreducible atoms/shells =       5

  Total number atoms/shells =       7

  Dimensionality = 3               :  Bulk

  Symmetry :

  Crystal family                   :  Cubic
  Crystal class  (Groth - 1921)    :  Cubic Hexakisoctahedral

  Space group (centrosymmetric)    :  P M 3 M

  Patterson group                  :  P m -3 m

  Cartesian lattice vectors (Angstroms) :

        4.504000    0.000000    0.000000
        0.000000    4.504000    0.000000
        0.000000    0.000000    4.504000

  Cell parameters (Angstroms/Degrees):

  a =       4.5040    alpha =  90.0000
  b =       4.5040    beta  =  90.0000
  c =       4.5040    gamma =  90.0000

  Initial cell volume =          91.368216 Angs**3

  Temperature of configuration =   0.00     K

  Pressure of configuration =         0.000 GPa

  Fractional coordinates of asymmetric unit :

   No.  Atomic       x           y          z         Charge      Occupancy
        Label      (Frac)      (Frac)     (Frac)        (e)         (Frac)
      1 Cl    c    0.000000    0.000000    0.000000     1.48500    1.000000
      2 O     c    0.500000    0.500000    0.500000     0.18300    1.000000
      3 Na    c    0.500000    0.500000    0.000000     1.00000    1.000000
      4 Cl    s    0.000000    0.000000    0.000000    -2.48500    1.000000
      5 O     s    0.500000    0.500000    0.500000    -2.18300    1.000000

  Constraints :

  Constraint no.      Unconstrained     Constrained    Coefficient    Offset
                         Variable         Variable
           1              Strain 1        Strain 2       1.00000      0.0000
           2              Strain 1        Strain 3       1.00000      0.0000

*  General input information                                                   *

  Species output for all configurations :

  Species    Type    Atomic    Atomic    Charge       Radii (Angs)     Library
                     Number     Mass       (e)     Cova   Ionic  VDW   Symbol
    Na       Core       11      22.99   1.000000   0.970  0.000  2.300
    O        Core        8      16.00   0.183000   0.730  0.000  1.360
    O        Shell       8       0.00  -2.183000   0.730  0.000  1.360
    Cl       Core       17      35.45   1.485000   0.990  0.000  1.650
    Cl       Shell      17       0.00  -2.485000   0.990  0.000  1.650
    Mg       Core       12      24.31   0.415000   1.100  0.000  0.000
    Mg       Shell      12       0.00   1.585000   1.100  0.000  0.000
    Ca       Core       20      40.08  -1.135000   0.990  0.000  0.000
    Ca       Shell      20       0.00   3.135000   0.990  0.000  0.000
    Sr       Core       38      87.62  -1.251000   1.120  0.000  0.000
    Sr       Shell      38       0.00   3.251000   1.120  0.000  0.000
    Ba       Core       56     137.33  -7.203000   1.340  0.000  0.000
    Ba       Shell      56       0.00   9.203000   1.340  0.000  0.000

  Lattice summation method               =    Ewald          (3-D)
                                         =    Parry          (2-D)
                                         =    Saunders et al (1-D)
  Accuracy factor for lattice sums       =   12.000

  Analytic derivatives to be used

  Time limit = Infinity

  Maximum range for interatomic potentials =    100000.000000 Angstroms

  General interatomic potentials :

Atom  Types   Potential      Parameter       Value         Units   Cutoffs(Ang)
  1     2                                                            Min /  Max
O    c O    s Spring (c-s)  Spring k 2       593.71600    eV*Ang^-2 0.000  0.800
                            Spring k 4       0.0000000    eV*Ang^-4
Cl   c Cl   s Spring (c-s)  Spring k 2       29.380000    eV*Ang^-2 0.000  0.800
                            Spring k 4       0.0000000    eV*Ang^-4
Mg   c Mg   s Spring (c-s)  Spring k 2       361.60000    eV*Ang^-2 0.000  0.800
                            Spring k 4       0.0000000    eV*Ang^-4
Ca   c Ca   s Spring (c-s)  Spring k 2       110.20000    eV*Ang^-2 0.000  0.800
                            Spring k 4       0.0000000    eV*Ang^-4
Sr   c Sr   s Spring (c-s)  Spring k 2       71.700000    eV*Ang^-2 0.000  0.800
                            Spring k 4       0.0000000    eV*Ang^-4
Ba   c Ba   s Spring (c-s)  Spring k 2       495.20000    eV*Ang^-2 0.000  0.800
                            Spring k 4       0.0000000    eV*Ang^-4
Na   c Na   c Buckingham    Buckingham A     1788.1900    eV        0.000 12.000
                            Buckingham rho  0.15900000    Ang
                            Buckingham C     0.0000000    eV*Ang^6
Na   c O    s Buckingham    Buckingham A     1226.8400    eV        0.000 12.000
                            Buckingham rho  0.30700000    Ang
                            Buckingham C     0.0000000    eV*Ang^6
Na   c Cl   s Buckingham    Buckingham A     2314.7000    eV        0.000 12.000
                            Buckingham rho  0.29000000    Ang
                            Buckingham C     0.0000000    eV*Ang^6
O    s O    s Buckingham    Buckingham A     22764.300    eV        0.000 12.000
                            Buckingham rho  0.14900000    Ang
                            Buckingham C     13.190000    eV*Ang^6
O    s Cl   s Buckingham    Buckingham A     8286.9100    eV        0.000 12.000
                            Buckingham rho  0.25900000    Ang
                            Buckingham C     62.200000    eV*Ang^6
Cl   s Cl   s Buckingham    Buckingham A     1227.2000    eV        0.000 12.000
                            Buckingham rho  0.32100000    Ang
                            Buckingham C     14.530000    eV*Ang^6
O    s Mg   s Buckingham    Buckingham A     1428.5000    eV        0.000 12.000
                            Buckingham rho  0.29450000    Ang
                            Buckingham C     0.0000000    eV*Ang^6
Mg   s Cl   s Buckingham    Buckingham A     4914.5400    eV        0.000 12.000
                            Buckingham rho  0.25700000    Ang
                            Buckingham C     0.0000000    eV*Ang^6
O    s Ca   s Buckingham    Buckingham A     1090.4000    eV        0.000 12.000
                            Buckingham rho  0.34370000    Ang
                            Buckingham C     0.0000000    eV*Ang^6
Cl   s Ca   s Buckingham    Buckingham A     2302.0000    eV        0.000 12.000
                            Buckingham rho  0.34020000    Ang
                            Buckingham C     0.0000000    eV*Ang^6
O    s Sr   s Buckingham    Buckingham A     959.10000    eV        0.000 12.000
                            Buckingham rho  0.37210000    Ang
                            Buckingham C     0.0000000    eV*Ang^6
Cl   s Sr   s Buckingham    Buckingham A     2191.0900    eV        0.000 12.000
                            Buckingham rho  0.34570000    Ang
                            Buckingham C     0.0000000    eV*Ang^6
O    s Ba   s Buckingham    Buckingham A     905.70000    eV        0.000 12.000
                            Buckingham rho  0.39760000    Ang
                            Buckingham C     0.0000000    eV*Ang^6
Cl   s Ba   s Buckingham    Buckingham A     2704.5500    eV        0.000 12.000
                            Buckingham rho  0.35280000    Ang
                            Buckingham C     0.0000000    eV*Ang^6

*  Output for configuration   1                                                *

  Components of energy :

  Interatomic potentials     =           5.13022605 eV
  Monopole - monopole (real) =         -10.03624526 eV
  Monopole - monopole (recip)=         -29.53581274 eV
  Monopole - monopole (total)=         -39.57205800 eV
  Total lattice energy       =         -34.44183194 eV
  Total lattice energy       =           -3323.1103 kJ/(mole unit cells)

  Number of variables =        1

  Maximum number of calculations  =          1000
  Maximum Hessian update interval =            10
  Maximum step size               =   1.000000000
  Maximum parameter tolerance     =   0.000010000
  Maximum function  tolerance     =   0.000010000
  Maximum gradient  tolerance     =   0.001000000
  Maximum gradient  component     =   0.010000000

  Symmetry constrained optimisation

  Symmetry used for second derivatives

  Cell parameters to be optimised using strains

  Newton-Raphson optimiser to be used

  BFGS hessian update to be used

  Lower half triangular hessian to be used

  Start of bulk optimisation :

  ** Hessian calculated **

  **** Optimisation achieved ****

  Final energy =     -34.44191447 eV
  Final Gnorm  =       0.00000000

  Components of energy :

  Interatomic potentials     =           5.09689708 eV
  Monopole - monopole (real) =         -10.02781331 eV
  Monopole - monopole (recip)=         -29.51099824 eV
  Monopole - monopole (total)=         -39.53881155 eV
  Total lattice energy       =         -34.44191447 eV
  Total lattice energy       =           -3323.1183 kJ/(mole unit cells)

  Final asymmetric unit coordinates :

   No.  Atomic        x           y           z         Radius
        Label       (Frac)      (Frac)      (Frac)       (Angs)
     1  Cl    c     0.000000    0.000000    0.000000    0.000000
     2  O     c     0.500000    0.500000    0.500000    0.000000
     3  Na    c     0.500000    0.500000    0.000000    0.000000
     4  Cl    s     0.000000    0.000000    0.000000    0.000000
     5  O     s     0.500000    0.500000    0.500000    0.000000

  Final Cartesian lattice vectors (Angstroms) :

        4.507787    0.000000    0.000000
        0.000000    4.507787    0.000000
        0.000000    0.000000    4.507787

  Final cell parameters and derivatives :

       a            4.507787 Angstrom     dE/de1(xx)     0.000000 eV/strain
       b            4.507787 Angstrom     dE/de2(yy)     0.000000 eV/strain
       c            4.507787 Angstrom     dE/de3(zz)     0.000000 eV/strain
       alpha       90.000000 Degrees      dE/de4(yz)     0.000000 eV/strain
       beta        90.000000 Degrees      dE/de5(xz)     0.000000 eV/strain
       gamma       90.000000 Degrees      dE/de6(xy)     0.000000 eV/strain

  Primitive cell volume =            91.598892 Angs**3

  Density of cell =      2.183054 g/cm**3

  Non-primitive cell volume =            91.598892 Angs**3

  Final internal derivatives :

   No.  Atomic          a             b             c           Radius
        Label          (eV)          (eV)          (eV)        (eV/Angs)
      1 Cl    c       0.000000      0.000000      0.000000      0.000000
      2 O     c       0.000000      0.000000      0.000000      0.000000
      3 Na    c       0.000000      0.000000      0.000000      0.000000
      4 Cl    s       0.000000      0.000000      0.000000      0.000000
      5 O     s       0.000000      0.000000      0.000000      0.000000
  Maximum abs         0.000000      0.000000      0.000000      0.000000

  Comparison of initial and final structures :

[...]
    245 z          6.761681      6.713031    -0.048650    Cartesian   -0.72
    246 x          2.253894      2.253894     0.000000    Cartesian    0.00
    246 y          2.253894      2.267356     0.013462    Cartesian    0.60
    246 z         -6.761681     -6.729788     0.031892    Cartesian   -0.47
    247 x         -2.253894     -2.270346    -0.016452    Cartesian    0.73
    247 y          6.761681      6.747009    -0.014672    Cartesian   -0.22
    247 z         -2.253894     -2.270997    -0.017103    Cartesian    0.76
    248 x         -2.253894     -2.245282     0.008611    Cartesian   -0.38
    248 y          6.761681      6.721501    -0.040180    Cartesian   -0.59
    248 z          2.253894      2.252227    -0.001666    Cartesian   -0.07
    249 x          4.507787      4.529449     0.021661    Cartesian    0.48
    249 y          9.015574      9.034799     0.019225    Cartesian    0.21
    249 z          0.000000     -0.009863    -0.009863    Cartesian    0.00
    250 x          4.507787      4.604535     0.096748    Cartesian    2.15
    250 y         -4.507787     -4.648121    -0.140334    Cartesian    3.11
    250 z          0.000000     -0.089474    -0.089474    Cartesian    0.00
    251 x          9.015574      9.064895     0.049321    Cartesian    0.55
    251 y          4.507787      4.488404    -0.019383    Cartesian   -0.43
    251 z          0.000000     -0.008361    -0.008361    Cartesian    0.00
    252 x          9.015574      9.080371     0.064797    Cartesian    0.72
    252 y          0.000000     -0.035066    -0.035066    Cartesian    0.00
    252 z          0.000000     -0.031090    -0.031090    Cartesian    0.00
    253 x          2.253894      2.253894     0.000000    Cartesian    0.00
    253 y         -2.253894     -2.243097     0.010797    Cartesian   -0.48
    253 z          6.761681      6.702382    -0.059299    Cartesian   -0.88
    254 x          2.253894      2.253894     0.000000    Cartesian    0.00
    254 y         -2.253894     -2.263501    -0.009608    Cartesian    0.43
    254 z         -6.761681     -6.705059     0.056622    Cartesian   -0.84
    255 x         -2.253894     -2.260190    -0.006296    Cartesian    0.28
    255 y          2.253894      2.244700    -0.009194    Cartesian   -0.41
    255 z          6.761681      6.745402    -0.016279    Cartesian   -0.24
    256 x         -2.253894     -2.260486    -0.006592    Cartesian    0.29
    256 y          2.253894      2.238893    -0.015001    Cartesian   -0.67
    256 z         -6.761681     -6.742842     0.018838    Cartesian   -0.28
    257 x          2.253894      2.253894     0.000000    Cartesian    0.00
    257 y          6.761681      6.737710    -0.023971    Cartesian   -0.35
    257 z          6.761681      6.750581    -0.011100    Cartesian   -0.16
    258 x          2.253894      2.253894     0.000000    Cartesian    0.00
    258 y          6.761681      6.722434    -0.039247    Cartesian   -0.58
    258 z         -6.761681     -6.766178    -0.004497    Cartesian    0.07
    259 x          4.507787      4.488914    -0.018874    Cartesian   -0.42
    259 y          9.015574      9.077885     0.062311    Cartesian    0.69
    259 z          4.507787      4.489701    -0.018086    Cartesian   -0.40
    260 x          4.507787      4.506217    -0.001570    Cartesian   -0.03
    260 y          9.015574      9.064065     0.048490    Cartesian    0.54
    260 z         -4.507787     -4.550228    -0.042441    Cartesian    0.94
    261 x          4.507787      4.588161     0.080374    Cartesian    1.78
    261 y         -4.507787     -4.651508    -0.143721    Cartesian    3.19
    261 z          4.507787      4.628466     0.120679    Cartesian    2.68
    262 x          4.507787      4.538911     0.031124    Cartesian    0.69
    262 y         -4.507787     -4.515210    -0.007423    Cartesian    0.16
    262 z         -4.507787     -4.571620    -0.063832    Cartesian    1.42
    263 x          9.015574      9.065286     0.049712    Cartesian    0.55
    263 y          4.507787      4.515724     0.007937    Cartesian    0.18
    263 z          4.507787      4.508830     0.001043    Cartesian    0.02
    264 x          9.015574      9.061186     0.045611    Cartesian    0.51
    264 y          4.507787      4.538995     0.031208    Cartesian    0.69
    264 z         -4.507787     -4.531680    -0.023893    Cartesian    0.53
    265 x          9.015574      9.041920     0.026345    Cartesian    0.29
    265 y          0.000000     -0.002400    -0.002400    Cartesian    0.00
    265 z          4.507787      4.539827     0.032040    Cartesian    0.71
    266 x          9.015574      9.045530     0.029956    Cartesian    0.33
    266 y          0.000000     -0.000856    -0.000856    Cartesian    0.00
    266 z         -4.507787     -4.569558    -0.061771    Cartesian    1.37
    267 x          2.253894      2.253894     0.000000    Cartesian    0.00
    267 y         11.269468     11.232541    -0.036927    Cartesian   -0.33
    267 z         -2.253894     -2.269047    -0.015153    Cartesian    0.67
    268 x          2.253894      2.253894     0.000000    Cartesian    0.00
    268 y         11.269468     11.256054    -0.013414    Cartesian   -0.12
    268 z          2.253894      2.254082     0.000188    Cartesian    0.01
    269 x          2.253894      2.253894     0.000000    Cartesian    0.00
    269 y         -6.761681     -6.728110     0.033571    Cartesian   -0.50
    269 z         -2.253894     -2.232090     0.021804    Cartesian   -0.97
    270 x          2.253894      2.253894     0.000000    Cartesian    0.00
    270 y         -6.761681     -6.784493    -0.022812    Cartesian    0.34
    270 z          2.253894      2.236640    -0.017253    Cartesian   -0.77
    271 x         11.269468     11.272289     0.002821    Cartesian    0.03
    271 y          2.253894      2.250953    -0.002940    Cartesian   -0.13
    271 z         -2.253894     -2.237527     0.016366    Cartesian   -0.73
    272 x         11.269468     11.254774    -0.014694    Cartesian   -0.13
    272 y          2.253894      2.251121    -0.002772    Cartesian   -0.12
    272 z          2.253894      2.238418    -0.015475    Cartesian   -0.69
    273 x          6.761681      6.771362     0.009681    Cartesian    0.14
    273 y          6.761681      6.778272     0.016592    Cartesian    0.25
    273 z          6.761681      6.746144    -0.015537    Cartesian   -0.23
    274 x          6.761681      6.762487     0.000806    Cartesian    0.01
    274 y          6.761681      6.774405     0.012724    Cartesian    0.19
    274 z         -6.761681     -6.734253     0.027428    Cartesian   -0.41
    275 x          6.761681      6.758416    -0.003264    Cartesian   -0.05
    275 y         -2.253894     -2.237823     0.016070    Cartesian   -0.71
    275 z          6.761681      6.757154    -0.004527    Cartesian   -0.07
    276 x          6.761681      6.760266    -0.001415    Cartesian   -0.02
    276 y         -2.253894     -2.227132     0.026762    Cartesian   -1.19
    276 z         -6.761681     -6.762099    -0.000418    Cartesian    0.01
    277 x          4.507787      4.514727     0.006940    Cartesian    0.15
    277 y          4.507787      4.525923     0.018136    Cartesian    0.40
    277 z          9.015574      9.064123     0.048549    Cartesian    0.54
    278 x          4.507787      4.540224     0.032437    Cartesian    0.72
    278 y          4.507787      4.518839     0.011052    Cartesian    0.25
    278 z         -9.015574     -9.044197    -0.028622    Cartesian    0.32
    279 x          4.507787      4.495573    -0.012214    Cartesian   -0.27
    279 y          0.000000      0.022881     0.022881    Cartesian    0.00
    279 z          9.015574      9.044246     0.028671    Cartesian    0.32
    280 x          4.507787      4.492424    -0.015363    Cartesian   -0.34
    280 y          0.000000     -0.013475    -0.013475    Cartesian    0.00
    280 z         -9.015574     -9.053932    -0.038357    Cartesian    0.43
    281 x          9.015574      9.027436     0.011861    Cartesian    0.13
    281 y          9.015574      9.073509     0.057934    Cartesian    0.64
    281 z          0.000000     -0.017746    -0.017746    Cartesian    0.00
    282 x          9.015574      9.081787     0.066213    Cartesian    0.73
    282 y         -4.507787     -4.507921    -0.000134    Cartesian    0.00
    282 z          0.000000     -0.021590    -0.021590    Cartesian    0.00
    283 x         11.269468     11.268396    -0.001072    Cartesian   -0.01
    283 y         -2.253894     -2.237992     0.015902    Cartesian   -0.71
    283 z         -2.253894     -2.257016    -0.003122    Cartesian    0.14
    284 x         11.269468     11.256285    -0.013183    Cartesian   -0.12
    284 y         -2.253894     -2.244129     0.009765    Cartesian   -0.43
    284 z          2.253894      2.254080     0.000187    Cartesian    0.01
    285 x         -2.253894     -2.255439    -0.001545    Cartesian    0.07
    285 y         11.269468     11.255734    -0.013734    Cartesian   -0.12
    285 z         -2.253894     -2.229912     0.023982    Cartesian   -1.06
    286 x         -2.253894     -2.262071    -0.008178    Cartesian    0.36
    286 y         11.269468     11.256289    -0.013179    Cartesian   -0.12
    286 z          2.253894      2.232018    -0.021875    Cartesian   -0.97
    287 x         -2.253894     -2.261171    -0.007277    Cartesian    0.32
    287 y         -6.761681     -6.756297     0.005384    Cartesian   -0.08
    287 z         -2.253894     -2.282836    -0.028942    Cartesian    1.28
    288 x         -2.253894     -2.235474     0.018420    Cartesian   -0.82
    288 y         -6.761681     -6.740576     0.021105    Cartesian   -0.31
    288 z          2.253894      2.268867     0.014974    Cartesian    0.66
    289 x         11.269468     11.273514     0.004046    Cartesian    0.04
    289 y          6.761681      6.752084    -0.009597    Cartesian   -0.14
    289 z         -2.253894     -2.236967     0.016926    Cartesian   -0.75
    290 x         11.269468     11.265556    -0.003912    Cartesian   -0.03
    290 y          6.761681      6.740388    -0.021292    Cartesian   -0.31
    290 z          2.253894      2.241916    -0.011977    Cartesian   -0.53
    291 x          9.015574      9.039642     0.024068    Cartesian    0.27
    291 y          9.015574      9.048330     0.032755    Cartesian    0.36
    291 z          4.507787      4.500452    -0.007336    Cartesian   -0.16
    292 x          9.015574      9.036994     0.021419    Cartesian    0.24
    292 y          9.015574      9.030026     0.014451    Cartesian    0.16
    292 z         -4.507787     -4.529351    -0.021564    Cartesian    0.48
    293 x          9.015574      9.066182     0.050608    Cartesian    0.56
    293 y         -4.507787     -4.506353     0.001434    Cartesian   -0.03
    293 z          4.507787      4.481794    -0.025993    Cartesian   -0.58
    294 x          9.015574      9.040577     0.025003    Cartesian    0.28
    294 y         -4.507787     -4.529765    -0.021978    Cartesian    0.49
    294 z         -4.507787     -4.535041    -0.027253    Cartesian    0.60
    295 x          2.253894      2.253894     0.000000    Cartesian    0.00
    295 y          2.253894      2.261676     0.007782    Cartesian    0.35
    295 z         11.269468     11.255830    -0.013638    Cartesian   -0.12
    296 x          2.253894      2.253894     0.000000    Cartesian    0.00
    296 y          2.253894      2.223920    -0.029974    Cartesian   -1.33
    296 z        -11.269468    -11.249131     0.020337    Cartesian   -0.18
    297 x          2.253894      2.253894     0.000000    Cartesian    0.00
    297 y         11.269468     11.279194     0.009726    Cartesian    0.09
    297 z          6.761681      6.752167    -0.009514    Cartesian   -0.14
    298 x          2.253894      2.253894     0.000000    Cartesian    0.00
    298 y         11.269468     11.275832     0.006364    Cartesian    0.06
    298 z         -6.761681     -6.742780     0.018901    Cartesian   -0.28
    299 x          2.253894      2.253894     0.000000    Cartesian    0.00
    299 y         -6.761681     -6.752758     0.008923    Cartesian   -0.13
    299 z          6.761681      6.759106    -0.002575    Cartesian   -0.04
    300 x          2.253894      2.253894     0.000000    Cartesian    0.00
    300 y         -6.761681     -6.737189     0.024492    Cartesian   -0.36
    300 z         -6.761681     -6.772744    -0.011063    Cartesian    0.16
    301 x         11.269468     11.269099    -0.000369    Cartesian   -0.00
    301 y          2.253894      2.268609     0.014716    Cartesian    0.65
    301 z          6.761681      6.755861    -0.005820    Cartesian   -0.09
    302 x         11.269468     11.271874     0.002406    Cartesian    0.02
    302 y          2.253894      2.273876     0.019982    Cartesian    0.89
    302 z         -6.761681     -6.752842     0.008839    Cartesian   -0.13
    303 x          4.507787      4.541077     0.033290    Cartesian    0.74
    303 y         13.523362     13.591763     0.068402    Cartesian    0.51
    303 z          0.000000     -0.011079    -0.011079    Cartesian    0.00
    304 x          4.507787      4.469450    -0.038337    Cartesian   -0.85
    304 y         -9.015574     -9.053635    -0.038061    Cartesian    0.42
    304 z          0.000000      0.017772     0.017772    Cartesian    0.00
    305 x         13.523362     13.587727     0.064366    Cartesian    0.48
    305 y          4.507787      4.513759     0.005972    Cartesian    0.13
    305 z          0.000000     -0.002238    -0.002238    Cartesian    0.00
    306 x         13.523362     13.599806     0.076445    Cartesian    0.57
    306 y          0.000000     -0.003183    -0.003183    Cartesian    0.00
    306 z          0.000000     -0.001104    -0.001104    Cartesian    0.00
    307 x          4.507787      4.548323     0.040536    Cartesian    0.90
    307 y          9.015574      9.065410     0.049835    Cartesian    0.55
    307 z          9.015574      9.023849     0.008274    Cartesian    0.09
    308 x          4.507787      4.518237     0.010450    Cartesian    0.23
    308 y          9.015574      9.033961     0.018387    Cartesian    0.20
    308 z         -9.015574     -9.054812    -0.039238    Cartesian    0.44
    309 x          4.507787      4.518085     0.010298    Cartesian    0.23
    309 y         -4.507787     -4.492598     0.015189    Cartesian   -0.34
    309 z          9.015574      9.103613     0.088039    Cartesian    0.98
    310 x          4.507787      4.500852    -0.006935    Cartesian   -0.15
    310 y         -4.507787     -4.524209    -0.016422    Cartesian    0.36
    310 z         -9.015574     -9.057386    -0.041812    Cartesian    0.46
    311 x          9.015574      9.053352     0.037777    Cartesian    0.42
    311 y          4.507787      4.517743     0.009956    Cartesian    0.22
    311 z          9.015574      9.086581     0.071006    Cartesian    0.79
    312 x          9.015574      9.042347     0.026772    Cartesian    0.30
    312 y          4.507787      4.509846     0.002058    Cartesian    0.05
    312 z         -9.015574     -9.083443    -0.067868    Cartesian    0.75
    313 x          9.015574      9.042738     0.027164    Cartesian    0.30
    313 y          0.000000      0.006587     0.006587    Cartesian    0.00
    313 z          9.015574      9.009473    -0.006101    Cartesian   -0.07
    314 x          9.015574      9.010148    -0.005427    Cartesian   -0.06
    314 y          0.000000      0.006661     0.006661    Cartesian    0.00
    314 z         -9.015574     -9.015862    -0.000288    Cartesian    0.00

  Time to end of optimisation  =      103.6545 seconds

  Timing analysis for GULP :

  Task / Subroutine                                          Time (Seconds)
  Calculation of reciprocal space energy and derivatives          0.0008
  Calculation of reciprocal space energy using symmetry           0.0011
  Calculation of real space energy and derivatives                0.0043
  Calculation of real space energy using symmetry                 0.0104
  Calculation for region 1 energy and derivatives (2-b)          55.0207
  Calculation for region 2a energy                               44.5963
  Calculation for region 2b energy                                0.0171
  Calculation and manipulation of Hessian matrix                  0.1532
  Calculation of matrix inversion                                 3.4753
  Symmetry generation of equivalent positions                     0.0052

  Dump file written as Na3OCl.grs

  Job Finished at 23:01.56 30th November   2020