  Job Started  at 15:19.10 19th January    2021

  Number of CPUs =     1

  Total number of configurations input =      1

*  Input for Configuration =   1                                               *

  Formula = OClNa3

  Number of irreducible atoms/shells =       5

  Total number atoms/shells =       7

  Dimensionality = 3               :  Bulk

  Symmetry :

  Crystal family                   :  Cubic
  Crystal class  (Groth - 1921)    :  Cubic Hexakisoctahedral

  Space group (centrosymmetric)    :  P M 3 M

  Patterson group                  :  P m -3 m

  Cartesian lattice vectors (Angstroms) :

        4.504000    0.000000    0.000000
        0.000000    4.504000    0.000000
        0.000000    0.000000    4.504000

  Cell parameters (Angstroms/Degrees):

  a =       4.5040    alpha =  90.0000
  b =       4.5040    beta  =  90.0000
  c =       4.5040    gamma =  90.0000

  Initial cell volume =          91.368216 Angs**3

  Temperature of configuration =   0.00     K

  Pressure of configuration =         0.000 GPa

  Fractional coordinates of asymmetric unit :

   No.  Atomic       x           y          z         Charge      Occupancy
        Label      (Frac)      (Frac)     (Frac)        (e)         (Frac)
      1 O     c    0.000000    0.000000    0.000000     0.18300    1.000000
      2 Cl    c    0.500000    0.500000    0.500000     1.48500    1.000000
      3 Na    c    0.500000    0.000000    0.000000     1.00000    1.000000
      4 O     s    0.000000    0.000000    0.000000    -2.18300    1.000000
      5 Cl    s    0.500000    0.500000    0.500000    -2.48500    1.000000

  Constraints :

  Constraint no.      Unconstrained     Constrained    Coefficient    Offset
                         Variable         Variable
           1              Strain 1        Strain 2       1.00000      0.0000
           2              Strain 1        Strain 3       1.00000      0.0000

*  General input information                                                   *

  Species output for all configurations :

  Species    Type    Atomic    Atomic    Charge       Radii (Angs)     Library
                     Number     Mass       (e)     Cova   Ionic  VDW   Symbol
    Na       Core       11      22.99   1.000000   0.970  0.000  2.300
    O        Core        8      16.00   0.183000   0.730  0.000  1.360
    O        Shell       8       0.00  -2.183000   0.730  0.000  1.360
    Cl       Core       17      35.45   1.485000   0.990  0.000  1.650
    Cl       Shell      17       0.00  -2.485000   0.990  0.000  1.650
    Mg       Core       12      24.31   0.415000   1.100  0.000  0.000
    Mg       Shell      12       0.00   1.585000   1.100  0.000  0.000
    Ca       Core       20      40.08  -1.135000   0.990  0.000  0.000
    Ca       Shell      20       0.00   3.135000   0.990  0.000  0.000
    Sr       Core       38      87.62  -1.251000   1.120  0.000  0.000
    Sr       Shell      38       0.00   3.251000   1.120  0.000  0.000
    Ba       Core       56     137.33  -7.203000   1.340  0.000  0.000
    Ba       Shell      56       0.00   9.203000   1.340  0.000  0.000

  Lattice summation method               =    Ewald          (3-D)
                                         =    Parry          (2-D)
                                         =    Saunders et al (1-D)
  Accuracy factor for lattice sums       =   12.000

  Analytic derivatives to be used

  Time limit = Infinity

  Maximum range for interatomic potentials =    100000.000000 Angstroms

  General interatomic potentials :

Atom  Types   Potential      Parameter       Value         Units   Cutoffs(Ang)
  1     2                                                            Min /  Max
O    c O    s Spring (c-s)  Spring k 2       593.71600    eV*Ang^-2 0.000  0.800
                            Spring k 4       0.0000000    eV*Ang^-4
Cl   c Cl   s Spring (c-s)  Spring k 2       29.380000    eV*Ang^-2 0.000  0.800
                            Spring k 4       0.0000000    eV*Ang^-4
Mg   c Mg   s Spring (c-s)  Spring k 2       361.60000    eV*Ang^-2 0.000  0.800
                            Spring k 4       0.0000000    eV*Ang^-4
Ca   c Ca   s Spring (c-s)  Spring k 2       110.20000    eV*Ang^-2 0.000  0.800
                            Spring k 4       0.0000000    eV*Ang^-4
Sr   c Sr   s Spring (c-s)  Spring k 2       71.700000    eV*Ang^-2 0.000  0.800
                            Spring k 4       0.0000000    eV*Ang^-4
Ba   c Ba   s Spring (c-s)  Spring k 2       495.20000    eV*Ang^-2 0.000  0.800
                            Spring k 4       0.0000000    eV*Ang^-4
Na   c Na   c Buckingham    Buckingham A     1788.1900    eV        0.000 12.000
                            Buckingham rho  0.15900000    Ang
                            Buckingham C     0.0000000    eV*Ang^6
Na   c O    s Buckingham    Buckingham A     588.38000    eV        0.000 12.000
                            Buckingham rho  0.33800000    Ang
                            Buckingham C     0.0000000    eV*Ang^6
Na   c Cl   s Buckingham    Buckingham A     1170.4100    eV        0.000 12.000
                            Buckingham rho  0.31500000    Ang
                            Buckingham C     0.0000000    eV*Ang^6
O    s O    s Buckingham    Buckingham A     22764.300    eV        0.000 12.000
                            Buckingham rho  0.14900000    Ang
                            Buckingham C     13.190000    eV*Ang^6
O    s Cl   s Buckingham    Buckingham A     8286.9100    eV        0.000 12.000
                            Buckingham rho  0.25900000    Ang
                            Buckingham C     62.200000    eV*Ang^6
Cl   s Cl   s Buckingham    Buckingham A     1227.2000    eV        0.000 12.000
                            Buckingham rho  0.32100000    Ang
                            Buckingham C     14.530000    eV*Ang^6
O    s Mg   s Buckingham    Buckingham A     1428.5000    eV        0.000 12.000
                            Buckingham rho  0.29450000    Ang
                            Buckingham C     0.0000000    eV*Ang^6
Mg   s Cl   s Buckingham    Buckingham A     4914.5400    eV        0.000 12.000
                            Buckingham rho  0.25700000    Ang
                            Buckingham C     0.0000000    eV*Ang^6
O    s Ca   s Buckingham    Buckingham A     1090.4000    eV        0.000 12.000
                            Buckingham rho  0.34370000    Ang
                            Buckingham C     0.0000000    eV*Ang^6
Cl   s Ca   s Buckingham    Buckingham A     2302.0000    eV        0.000 12.000
                            Buckingham rho  0.34020000    Ang
                            Buckingham C     0.0000000    eV*Ang^6
O    s Sr   s Buckingham    Buckingham A     959.10000    eV        0.000 12.000
                            Buckingham rho  0.37210000    Ang
                            Buckingham C     0.0000000    eV*Ang^6
Cl   s Sr   s Buckingham    Buckingham A     2191.0900    eV        0.000 12.000
                            Buckingham rho  0.34570000    Ang
                            Buckingham C     0.0000000    eV*Ang^6
O    s Ba   s Buckingham    Buckingham A     905.70000    eV        0.000 12.000
                            Buckingham rho  0.39760000    Ang
                            Buckingham C     0.0000000    eV*Ang^6
Cl   s Ba   s Buckingham    Buckingham A     2704.5500    eV        0.000 12.000
                            Buckingham rho  0.35280000    Ang
                            Buckingham C     0.0000000    eV*Ang^6

*  Output for configuration   1                                                *

  Components of energy :

  Interatomic potentials     =           4.94315381 eV
  Monopole - monopole (real) =         -10.03624526 eV
  Monopole - monopole (recip)=         -29.53581274 eV
  Monopole - monopole (total)=         -39.57205800 eV
  Total lattice energy       =         -34.62890419 eV
  Total lattice energy       =           -3341.1599 kJ/(mole unit cells)

  Number of variables =        1

  Maximum number of calculations  =          1000
  Maximum Hessian update interval =            10
  Maximum step size               =   1.000000000
  Maximum parameter tolerance     =   0.000010000
  Maximum function  tolerance     =   0.000010000
  Maximum gradient  tolerance     =   0.001000000
  Maximum gradient  component     =   0.010000000

  Symmetry constrained optimisation

  Symmetry used for second derivatives

  Cell parameters to be optimised using strains

  Newton-Raphson optimiser to be used

  BFGS hessian update to be used

  Lower half triangular hessian to be used

  Start of bulk optimisation :

  ** Hessian calculated **

  **** Optimisation achieved ****

  Final energy =     -34.67767136 eV
  Final Gnorm  =       0.00000010

  Components of energy :

  Interatomic potentials     =           5.77546103 eV
  Monopole - monopole (real) =         -10.25970290 eV
  Monopole - monopole (recip)=         -30.19342950 eV
  Monopole - monopole (total)=         -40.45313239 eV
  Total lattice energy       =         -34.67767136 eV
  Total lattice energy       =           -3345.8652 kJ/(mole unit cells)

  Final asymmetric unit coordinates :

   No.  Atomic        x           y           z         Radius
        Label       (Frac)      (Frac)      (Frac)       (Angs)
     1  O     c     0.000000    0.000000    0.000000    0.000000
     2  Cl    c     0.500000    0.500000    0.500000    0.000000
     3  Na    c     0.500000    0.000000    0.000000    0.000000
     4  O     s     0.000000    0.000000    0.000000    0.000000
     5  Cl    s     0.500000    0.500000    0.500000    0.000000

  Final Cartesian lattice vectors (Angstroms) :

        4.405902    0.000000    0.000000
        0.000000    4.405902    0.000000
        0.000000    0.000000    4.405902

  Final cell parameters and derivatives :

       a            4.405902 Angstrom     dE/de1(xx)     0.000000 eV/strain
       b            4.405902 Angstrom     dE/de2(yy)     0.000000 eV/strain
       c            4.405902 Angstrom     dE/de3(zz)     0.000000 eV/strain
       alpha       90.000000 Degrees      dE/de4(yz)     0.000000 eV/strain
       beta        90.000000 Degrees      dE/de5(xz)     0.000000 eV/strain
       gamma       90.000000 Degrees      dE/de6(xy)     0.000000 eV/strain

  Primitive cell volume =            85.527266 Angs**3

  Density of cell =      2.338030 g/cm**3

  Non-primitive cell volume =            85.527266 Angs**3

  Final internal derivatives :

   No.  Atomic          a             b             c           Radius
        Label          (eV)          (eV)          (eV)        (eV/Angs)
      1 O     c       0.000000      0.000000      0.000000      0.000000
      2 Cl    c       0.000000      0.000000      0.000000      0.000000
      3 Na    c       0.000000      0.000000      0.000000      0.000000
      4 O     s       0.000000      0.000000      0.000000      0.000000
      5 Cl    s       0.000000      0.000000      0.000000      0.000000
  Maximum abs         0.000000      0.000000      0.000000      0.000000

  Comparison of initial and final structures :

[...]
    132 z          6.608853      6.587487    -0.021367    Cartesian   -0.32
    133 x         -2.202951     -2.209313    -0.006362    Cartesian    0.29
    133 y          8.811805      8.830983     0.019178    Cartesian    0.22
    133 z          8.811805      8.837545     0.025740    Cartesian    0.29
    134 x         11.014756     11.025970     0.011215    Cartesian    0.10
    134 y         -4.405902     -4.439985    -0.034082    Cartesian    0.77
    134 z          4.405902      4.427918     0.022016    Cartesian    0.50
    135 x          6.608853      6.611300     0.002447    Cartesian    0.04
    135 y         -4.405902     -4.421011    -0.015108    Cartesian    0.34
    135 z          8.811805      8.845029     0.033224    Cartesian    0.38
    136 x         -6.608853     -6.621535    -0.012682    Cartesian    0.19
    136 y          8.811805      8.830924     0.019120    Cartesian    0.22
    136 z          4.405902      4.415909     0.010006    Cartesian    0.23
    137 x          2.202951      2.204799     0.001848    Cartesian    0.08
    137 y         -2.202951     -2.185103     0.017848    Cartesian   -0.81
    137 z         11.014756     10.978766    -0.035989    Cartesian   -0.33
    138 x          6.608853      6.598100    -0.010754    Cartesian   -0.16
    138 y         -6.608853     -6.576633     0.032220    Cartesian   -0.49
    138 z          6.608853      6.596222    -0.012631    Cartesian   -0.19
    139 x          6.608853      6.614727     0.005873    Cartesian    0.09
    139 y         -8.811805     -8.838155    -0.026351    Cartesian    0.30
    139 z          0.000000      0.000000     0.000000    Cartesian    0.00
    140 x          2.202951      2.201972    -0.000979    Cartesian   -0.04
    140 y         -8.811805     -8.848133    -0.036328    Cartesian    0.41
    140 z          4.405902      4.414847     0.008944    Cartesian    0.20
    141 x         -2.202951     -2.203490    -0.000539    Cartesian    0.02
    141 y         -4.405902     -4.424078    -0.018176    Cartesian    0.41
    141 z          8.811805      8.829196     0.017392    Cartesian    0.20
    142 x         -2.202951     -2.192119     0.010832    Cartesian   -0.49
    142 y         -6.608853     -6.567323     0.041531    Cartesian   -0.63
    142 z          6.608853      6.577687    -0.031166    Cartesian   -0.47
    143 x         -2.202951     -2.205128    -0.002177    Cartesian    0.10
    143 y         -8.811805     -8.842829    -0.031025    Cartesian    0.35
    143 z          0.000000      0.000000     0.000000    Cartesian    0.00
    144 x         -6.608853     -6.611868    -0.003014    Cartesian    0.05
    144 y         -4.405902     -4.413267    -0.007365    Cartesian    0.17
    144 z          4.405902      4.415910     0.010008    Cartesian    0.23
    145 x          0.720640      0.720640     0.000000    Cartesian    0.00
    145 y          0.720640      0.720640     0.000000    Cartesian    0.00
    145 z          0.000000      0.000000     0.000000    Cartesian    0.00
    146 x          2.202951      2.724084     0.521133    Cartesian   23.66
    146 y          2.202951      2.724084     0.521133    Cartesian   23.66
    146 z         -2.202951     -2.040409     0.162542    Cartesian   -7.38
    147 x          4.405902      4.623152     0.217250    Cartesian    4.93
    147 y          0.000000     -0.140791    -0.140791    Cartesian    0.00
    147 z          0.000000      0.000000     0.000000    Cartesian    0.00
    148 x          2.202951      2.534369     0.331418    Cartesian   15.04
    148 y          6.608853      6.366153    -0.242701    Cartesian   -3.67
    148 z         -2.202951     -1.903996     0.298955    Cartesian  -13.57
    149 x          2.202951      2.234539     0.031587    Cartesian    1.43
    149 y         -2.202951     -2.135870     0.067082    Cartesian   -3.05
    149 z         -2.202951     -2.134269     0.068682    Cartesian   -3.12
    150 x          4.405902      4.452215     0.046313    Cartesian    1.05
    150 y          4.405902      4.452215     0.046313    Cartesian    1.05
    150 z          4.405902      4.596612     0.190709    Cartesian    4.33
    151 x          4.405902      4.455702     0.049800    Cartesian    1.13
    151 y          0.000000      0.011785     0.011785    Cartesian    0.00
    151 z          4.405902      4.411681     0.005778    Cartesian    0.13
    152 x          0.000000      0.097498     0.097498    Cartesian    0.00
    152 y          0.000000      0.097498     0.097498    Cartesian    0.00
    152 z          4.405902      4.334640    -0.071262    Cartesian   -1.62
    153 x          6.608853      6.342423    -0.266430    Cartesian   -4.03
    153 y          6.608853      6.342423    -0.266430    Cartesian   -4.03
    153 z         -2.202951     -1.840320     0.362631    Cartesian  -16.46
    154 x          2.202951      2.217874     0.014923    Cartesian    0.68
    154 y          2.202951      2.217874     0.014923    Cartesian    0.68
    154 z          6.608853      6.577714    -0.031139    Cartesian   -0.47
    155 x          6.608853      6.683288     0.074435    Cartesian    1.13
    155 y         -2.202951     -2.182210     0.020741    Cartesian   -0.94
    155 z         -2.202951     -2.250350    -0.047399    Cartesian    2.15
    156 x         -2.202951     -1.959697     0.243255    Cartesian  -11.04
    156 y         -2.202951     -1.959697     0.243255    Cartesian  -11.04
    156 z         -2.202951     -1.966889     0.236062    Cartesian  -10.72
    157 x          4.405902      4.415714     0.009812    Cartesian    0.22
    157 y          8.811805      8.987997     0.176193    Cartesian    2.00
    157 z          0.000000      0.000000     0.000000    Cartesian    0.00
    158 x          8.811805      8.890536     0.078731    Cartesian    0.89
    158 y          0.000000      0.009346     0.009346    Cartesian    0.00
    158 z          0.000000      0.000000     0.000000    Cartesian    0.00
    159 x          4.405902      4.465659     0.059756    Cartesian    1.36
    159 y         -4.405902     -4.451895    -0.045993    Cartesian    1.04
    159 z          0.000000      0.000000     0.000000    Cartesian    0.00
    160 x          0.000000      0.055019     0.055019    Cartesian    0.00
    160 y         -4.405902     -4.389214     0.016688    Cartesian   -0.38
    160 z          0.000000      0.000000     0.000000    Cartesian    0.00
    161 x          2.202951      2.190187    -0.012764    Cartesian   -0.58
    161 y          6.608853      6.647522     0.038669    Cartesian    0.59
    161 z          6.608853      6.577360    -0.031494    Cartesian   -0.48
    162 x          2.202951      2.238932     0.035981    Cartesian    1.63
    162 y         -2.202951     -2.151436     0.051515    Cartesian   -2.34
    162 z          6.608853      6.561360    -0.047494    Cartesian   -0.72
    163 x          4.405902      4.414142     0.008240    Cartesian    0.19
    163 y          8.811805      8.825725     0.013921    Cartesian    0.16
    163 z          4.405902      4.419077     0.013175    Cartesian    0.30
    164 x          8.811805      8.823398     0.011593    Cartesian    0.13
    164 y          0.000000      0.016672     0.016672    Cartesian    0.00
    164 z          4.405902      4.396733    -0.009169    Cartesian   -0.21
    165 x          4.405902      4.413181     0.007279    Cartesian    0.17
    165 y         -4.405902     -4.401947     0.003956    Cartesian   -0.09
    165 z          4.405902      4.404400    -0.001503    Cartesian   -0.03
    166 x          0.000000      0.010078     0.010078    Cartesian    0.00
    166 y         -4.405902     -4.362261     0.043641    Cartesian   -0.99
    166 z          4.405902      4.372666    -0.033236    Cartesian   -0.75
    167 x          2.202951      2.211309     0.008358    Cartesian    0.38
    167 y         11.014756     11.007997    -0.006759    Cartesian   -0.06
    167 z         -2.202951     -2.231087    -0.028135    Cartesian    1.28
    168 x          6.608853      6.654280     0.045427    Cartesian    0.69
    168 y          6.608853      6.654280     0.045427    Cartesian    0.69
    168 z          6.608853      6.587967    -0.020886    Cartesian   -0.32
    169 x          6.608853      6.611169     0.002315    Cartesian    0.04
    169 y         -2.202951     -2.160744     0.042207    Cartesian   -1.92
    169 z          6.608853      6.580620    -0.028233    Cartesian   -0.43
    170 x          2.202951      2.216207     0.013256    Cartesian    0.60
    170 y         -6.608853     -6.577970     0.030883    Cartesian   -0.47
    170 z         -2.202951     -2.199545     0.003406    Cartesian   -0.15
    171 x         -2.202951     -2.166151     0.036800    Cartesian   -1.67
    171 y         -2.202951     -2.166151     0.036800    Cartesian   -1.67
    171 z          6.608853      6.546747    -0.062106    Cartesian   -0.94
    172 x          8.811805      8.825703     0.013898    Cartesian    0.16
    172 y          8.811805      8.825703     0.013898    Cartesian    0.16
    172 z          0.000000      0.000000     0.000000    Cartesian    0.00
    173 x          4.405902      4.405349    -0.000553    Cartesian   -0.01
    173 y          4.405902      4.405349    -0.000553    Cartesian   -0.01
    173 z          8.811805      8.865996     0.054192    Cartesian    0.61
    174 x          4.405902      4.413359     0.007457    Cartesian    0.17
    174 y          0.000000      0.002939     0.002939    Cartesian    0.00
    174 z          8.811805      8.819720     0.007915    Cartesian    0.09
    175 x          8.811805      8.829558     0.017753    Cartesian    0.20
    175 y         -4.405902     -4.424407    -0.018505    Cartesian    0.42
    175 z          0.000000      0.000000     0.000000    Cartesian    0.00
    176 x          0.000000     -0.002317    -0.002317    Cartesian    0.00
    176 y          0.000000     -0.002317    -0.002317    Cartesian    0.00
    176 z          8.811805      8.789062    -0.022743    Cartesian   -0.26
    177 x         -4.405902     -4.380428     0.025474    Cartesian   -0.58
    177 y         -4.405902     -4.380428     0.025474    Cartesian   -0.58
    177 z          0.000000      0.000000     0.000000    Cartesian    0.00
    178 x          6.608853      6.636728     0.027875    Cartesian    0.42
    178 y         11.014756     10.983794    -0.030962    Cartesian   -0.28
    178 z         -2.202951     -2.215462    -0.012510    Cartesian    0.57
    179 x         11.014756     11.008174    -0.006582    Cartesian   -0.06
    179 y         -2.202951     -2.178651     0.024300    Cartesian   -1.10
    179 z         -2.202951     -2.196410     0.006541    Cartesian   -0.30
    180 x          6.608853      6.618228     0.009374    Cartesian    0.14
    180 y         -6.608853     -6.591656     0.017198    Cartesian   -0.26
    180 z         -2.202951     -2.204487    -0.001536    Cartesian    0.07
    181 x         -2.202951     -2.184477     0.018475    Cartesian   -0.84
    181 y         -6.608853     -6.560054     0.048800    Cartesian   -0.74
    181 z         -2.202951     -2.195397     0.007554    Cartesian   -0.34
    182 x          8.811805      8.810168    -0.001636    Cartesian   -0.02
    182 y          8.811805      8.810168    -0.001636    Cartesian   -0.02
    182 z          4.405902      4.393059    -0.012844    Cartesian   -0.29
    183 x          8.811805      8.826229     0.014425    Cartesian    0.16
    183 y         -4.405902     -4.414584    -0.008682    Cartesian    0.20
    183 z          4.405902      4.412181     0.006279    Cartesian    0.14
    184 x         -4.405902     -4.389541     0.016361    Cartesian   -0.37
    184 y         -4.405902     -4.389541     0.016361    Cartesian   -0.37
    184 z          4.405902      4.390225    -0.015677    Cartesian   -0.36
    185 x          2.202951      2.223669     0.020718    Cartesian    0.94
    185 y         11.014756     10.996200    -0.018556    Cartesian   -0.17
    185 z          6.608853      6.585613    -0.023240    Cartesian   -0.35
    186 x          2.202951      2.200856    -0.002095    Cartesian   -0.10
    186 y          2.202951      2.200856    -0.002095    Cartesian   -0.10
    186 z         11.014756     10.984705    -0.030050    Cartesian   -0.27
    187 x          2.202951      2.208985     0.006034    Cartesian    0.27
    187 y         -6.608853     -6.576077     0.032777    Cartesian   -0.50
    187 z          6.608853      6.583348    -0.025506    Cartesian   -0.39
    188 x          4.405902      4.415489     0.009587    Cartesian    0.22
    188 y         13.217707     13.255078     0.037371    Cartesian    0.28
    188 z          0.000000      0.000000     0.000000    Cartesian    0.00
    189 x          4.405902      4.409103     0.003201    Cartesian    0.07
    189 y          8.811805      8.812667     0.000862    Cartesian    0.01
    189 z          8.811805      8.810472    -0.001333    Cartesian   -0.02
    190 x         13.217707     13.234742     0.017035    Cartesian    0.13
    190 y          0.000000     -0.008008    -0.008008    Cartesian    0.00
    190 z          0.000000      0.000000     0.000000    Cartesian    0.00
    191 x          8.811805      8.813507     0.001702    Cartesian    0.02
    191 y          0.000000     -0.001654    -0.001654    Cartesian    0.00
    191 z          8.811805      8.811791    -0.000014    Cartesian   -0.00
    192 x          4.405902      4.406063     0.000160    Cartesian    0.00
    192 y         -4.405902     -4.403027     0.002876    Cartesian   -0.07
    192 z          8.811805      8.804826    -0.006979    Cartesian   -0.08
    193 x          4.405902      4.403463    -0.002440    Cartesian   -0.06
    193 y         -8.811805     -8.820985    -0.009181    Cartesian    0.10
    193 z          0.000000      0.000000     0.000000    Cartesian    0.00
    194 x          0.000000      0.002404     0.002404    Cartesian    0.00
    194 y         -4.405902     -4.392185     0.013717    Cartesian   -0.31
    194 z          8.811805      8.800701    -0.011103    Cartesian   -0.13
    195 x          0.000000      0.000745     0.000745    Cartesian    0.00
    195 y         -8.811805     -8.807340     0.004464    Cartesian   -0.05
    195 z          0.000000      0.000000     0.000000    Cartesian    0.00
    196 x          6.608853      6.597312    -0.011542    Cartesian   -0.17
    196 y         11.014756     10.985118    -0.029638    Cartesian   -0.27
    196 z          6.608853      6.577202    -0.031652    Cartesian   -0.48
    197 x          2.202951      2.208204     0.005253    Cartesian    0.24
    197 y          6.608853      6.608923     0.000070    Cartesian    0.00
    197 z         11.014756     10.974689    -0.040067    Cartesian   -0.36
    198 x         11.014756     10.986664    -0.028092    Cartesian   -0.26
    198 y         -2.202951     -2.167115     0.035836    Cartesian   -1.63
    198 z          6.608853      6.584098    -0.024755    Cartesian   -0.37
    199 x          2.202951      2.205671     0.002719    Cartesian    0.12
    199 y         -2.202951     -2.182209     0.020742    Cartesian   -0.94
    199 z         11.014756     10.975014    -0.039741    Cartesian   -0.36
    200 x          6.608853      6.596239    -0.012614    Cartesian   -0.19
    200 y         -6.608853     -6.571506     0.037348    Cartesian   -0.57
    200 z          6.608853      6.594536    -0.014317    Cartesian   -0.22
    201 x         -2.202951     -2.192262     0.010689    Cartesian   -0.49
    201 y         -6.608853     -6.562856     0.045997    Cartesian   -0.70
    201 z          6.608853      6.573125    -0.035728    Cartesian   -0.54

  Time to end of optimisation  =       31.8764 seconds

  Timing analysis for GULP :

  Task / Subroutine                                          Time (Seconds)
  Calculation of reciprocal space energy and derivatives          0.0010
  Calculation of reciprocal space energy using symmetry           0.0016
  Calculation of real space energy and derivatives                0.0058
  Calculation of real space energy using symmetry                 0.0168
  Calculation for region 1 energy and derivatives (2-b)          16.7268
  Calculation for region 2a energy                               10.3625
  Calculation for region 2b energy                                0.0069
  Calculation and manipulation of Hessian matrix                  4.2052
  Calculation of matrix inversion                                 0.3608
  Symmetry generation of equivalent positions                     0.0066

  Dump file written as Na3OCl.grs

  Job Finished at 15:19.43 19th January    2021