  Job Started  at 12:37.02  2nd February   2021

  Number of CPUs =     1

  Total number of configurations input =      1

*  Input for Configuration =   1                                               *

  Formula = O8Cl8Na24

  Number of irreducible atoms/shells =      56

  Total number atoms/shells =      56

  Dimensionality = 3               :  Bulk

  Supercell dimensions :  x =   2  y =   2  z =   2

  Cartesian lattice vectors (Angstroms) :

        9.008000    0.000000    0.000000
        0.000000    9.008000    0.000000
        0.000000    0.000000    9.008000

  Cell parameters (Angstroms/Degrees):

  a =       9.0080    alpha =  90.0000
  b =       9.0080    beta  =  90.0000
  c =       9.0080    gamma =  90.0000

  Initial cell volume =         730.945729 Angs**3

  Temperature of configuration =   0.00     K

  Pressure of configuration =         0.000 GPa

  Fractional coordinates of asymmetric unit :

   No.  Atomic       x           y          z         Charge      Occupancy
        Label      (Frac)      (Frac)     (Frac)        (e)         (Frac)
      1 O     c    0.000000    0.000000    0.000000     0.18300    1.000000
      2 O     c    0.000000 *  0.000000 *  0.500000 *   0.18300    1.000000
      3 O     c    0.000000 *  0.500000 *  0.000000 *   0.18300    1.000000
      4 O     c    0.000000 *  0.500000 *  0.500000 *   0.18300    1.000000
      5 O     c    0.500000 *  0.000000 *  0.000000 *   0.18300    1.000000
      6 O     c    0.500000 *  0.000000 *  0.500000 *   0.18300    1.000000
      7 O     c    0.500000 *  0.500000 *  0.000000 *   0.18300    1.000000
      8 O     c    0.500000 *  0.500000 *  0.500000 *   0.18300    1.000000
      9 Cl    c    0.250000 *  0.250000 *  0.250000 *   1.48500    1.000000
     10 Cl    c    0.250000 *  0.250000 *  0.750000 *   1.48500    1.000000
     11 Cl    c    0.250000 *  0.750000 *  0.250000 *   1.48500    1.000000
     12 Cl    c    0.250000 *  0.750000 *  0.750000 *   1.48500    1.000000
     13 Cl    c    0.750000 *  0.250000 *  0.250000 *   1.48500    1.000000
     14 Cl    c    0.750000 *  0.250000 *  0.750000 *   1.48500    1.000000
     15 Cl    c    0.750000 *  0.750000 *  0.250000 *   1.48500    1.000000
     16 Cl    c    0.750000 *  0.750000 *  0.750000 *   1.48500    1.000000
     17 Na    c    0.250000 *  0.000000 *  0.000000 *   1.00000    1.000000
     18 Na    c    0.250000 *  0.000000 *  0.500000 *   1.00000    1.000000
     19 Na    c    0.250000 *  0.500000 *  0.000000 *   1.00000    1.000000
     20 Na    c    0.250000 *  0.500000 *  0.500000 *   1.00000    1.000000
     21 Na    c    0.750000 *  0.000000 *  0.000000 *   1.00000    1.000000
     22 Na    c    0.750000 *  0.000000 *  0.500000 *   1.00000    1.000000
     23 Na    c    0.750000 *  0.500000 *  0.000000 *   1.00000    1.000000
     24 Na    c    0.750000 *  0.500000 *  0.500000 *   1.00000    1.000000
     25 Na    c    0.000000 *  0.250000 *  0.000000 *   1.00000    1.000000
     26 Na    c    0.000000 *  0.250000 *  0.500000 *   1.00000    1.000000
     27 Na    c    0.000000 *  0.750000 *  0.000000 *   1.00000    1.000000
     28 Na    c    0.000000 *  0.750000 *  0.500000 *   1.00000    1.000000
     29 Na    c    0.500000 *  0.250000 *  0.000000 *   1.00000    1.000000
     30 Na    c    0.500000 *  0.250000 *  0.500000 *   1.00000    1.000000
     31 Na    c    0.500000 *  0.750000 *  0.000000 *   1.00000    1.000000
     32 Na    c    0.500000 *  0.750000 *  0.500000 *   1.00000    1.000000
     33 Na    c    0.000000 *  0.000000 *  0.250000 *   1.00000    1.000000
     34 Na    c    0.000000 *  0.000000 *  0.750000 *   1.00000    1.000000
     35 Na    c    0.000000 *  0.500000 *  0.250000 *   1.00000    1.000000
     36 Na    c    0.000000 *  0.500000 *  0.750000 *   1.00000    1.000000
     37 Na    c    0.500000 *  0.000000 *  0.250000 *   1.00000    1.000000
     38 Na    c    0.500000 *  0.000000 *  0.750000 *   1.00000    1.000000
     39 Na    c    0.500000 *  0.500000 *  0.250000 *   1.00000    1.000000
     40 Na    c    0.500000 *  0.500000 *  0.750000 *   1.00000    1.000000
     41 O     s    0.000000 *  0.000000 *  0.000000 *  -2.18300    1.000000
     42 O     s    0.000000 *  0.000000 *  0.500000 *  -2.18300    1.000000
     43 O     s    0.000000 *  0.500000 *  0.000000 *  -2.18300    1.000000
     44 O     s    0.000000 *  0.500000 *  0.500000 *  -2.18300    1.000000
     45 O     s    0.500000 *  0.000000 *  0.000000 *  -2.18300    1.000000
     46 O     s    0.500000 *  0.000000 *  0.500000 *  -2.18300    1.000000
     47 O     s    0.500000 *  0.500000 *  0.000000 *  -2.18300    1.000000
     48 O     s    0.500000 *  0.500000 *  0.500000 *  -2.18300    1.000000
     49 Cl    s    0.250000 *  0.250000 *  0.250000 *  -2.48500    1.000000
     50 Cl    s    0.250000 *  0.250000 *  0.750000 *  -2.48500    1.000000
     51 Cl    s    0.250000 *  0.750000 *  0.250000 *  -2.48500    1.000000
     52 Cl    s    0.250000 *  0.750000 *  0.750000 *  -2.48500    1.000000
     53 Cl    s    0.750000 *  0.250000 *  0.250000 *  -2.48500    1.000000
     54 Cl    s    0.750000 *  0.250000 *  0.750000 *  -2.48500    1.000000
     55 Cl    s    0.750000 *  0.750000 *  0.250000 *  -2.48500    1.000000
     56 Cl    s    0.750000 *  0.750000 *  0.750000 *  -2.48500    1.000000

*  General input information                                                   *

  Species output for all configurations :

  Species    Type    Atomic    Atomic    Charge       Radii (Angs)     Library
                     Number     Mass       (e)     Cova   Ionic  VDW   Symbol
    Na       Core       11      22.99   1.000000   0.970  0.000  2.300
    O        Core        8      16.00   0.183000   0.730  0.000  1.360
    O        Shell       8       0.00  -2.183000   0.730  0.000  1.360
    Cl       Core       17      35.45   1.485000   0.990  0.000  1.650
    Cl       Shell      17       0.00  -2.485000   0.990  0.000  1.650
    Mg       Core       12      24.31   0.415000   1.100  0.000  0.000
    Mg       Shell      12       0.00   1.585000   1.100  0.000  0.000
    Ca       Core       20      40.08  -1.135000   0.990  0.000  0.000
    Ca       Shell      20       0.00   3.135000   0.990  0.000  0.000
    Sr       Core       38      87.62  -1.251000   1.120  0.000  0.000
    Sr       Shell      38       0.00   3.251000   1.120  0.000  0.000
    Ba       Core       56     137.33  -7.203000   1.340  0.000  0.000
    Ba       Shell      56       0.00   9.203000   1.340  0.000  0.000

  Lattice summation method               =    Ewald          (3-D)
                                         =    Parry          (2-D)
                                         =    Saunders et al (1-D)
  Accuracy factor for lattice sums       =   12.000

  Analytic derivatives to be used

  Time limit = Infinity

  Maximum range for interatomic potentials =    100000.000000 Angstroms

  General interatomic potentials :

Atom  Types   Potential      Parameter       Value         Units   Cutoffs(Ang)
  1     2                                                            Min /  Max
O    c O    s Spring (c-s)  Spring k 2       593.71600    eV*Ang^-2 0.000  0.800
                            Spring k 4       0.0000000    eV*Ang^-4
Cl   c Cl   s Spring (c-s)  Spring k 2       29.380000    eV*Ang^-2 0.000  0.800
                            Spring k 4       0.0000000    eV*Ang^-4
Mg   c Mg   s Spring (c-s)  Spring k 2       361.60000    eV*Ang^-2 0.000  0.800
                            Spring k 4       0.0000000    eV*Ang^-4
Ca   c Ca   s Spring (c-s)  Spring k 2       110.20000    eV*Ang^-2 0.000  0.800
                            Spring k 4       0.0000000    eV*Ang^-4
Sr   c Sr   s Spring (c-s)  Spring k 2       71.700000    eV*Ang^-2 0.000  0.800
                            Spring k 4       0.0000000    eV*Ang^-4
Ba   c Ba   s Spring (c-s)  Spring k 2       495.20000    eV*Ang^-2 0.000  0.800
                            Spring k 4       0.0000000    eV*Ang^-4
Na   c Na   c Buckingham    Buckingham A     1788.1900    eV        0.000 12.000
                            Buckingham rho  0.15900000    Ang
                            Buckingham C     0.0000000    eV*Ang^6
Na   c O    s Buckingham    Buckingham A     588.38000    eV        0.000 12.000
                            Buckingham rho  0.33800000    Ang
                            Buckingham C     0.0000000    eV*Ang^6
Na   c Cl   s Buckingham    Buckingham A     1170.4100    eV        0.000 12.000
                            Buckingham rho  0.31500000    Ang
                            Buckingham C     0.0000000    eV*Ang^6
O    s O    s Buckingham    Buckingham A     22764.300    eV        0.000 12.000
                            Buckingham rho  0.14900000    Ang
                            Buckingham C     13.190000    eV*Ang^6
O    s Cl   s Buckingham    Buckingham A     8286.9100    eV        0.000 12.000
                            Buckingham rho  0.25900000    Ang
                            Buckingham C     62.200000    eV*Ang^6
Cl   s Cl   s Buckingham    Buckingham A     1227.2000    eV        0.000 12.000
                            Buckingham rho  0.32100000    Ang
                            Buckingham C     14.530000    eV*Ang^6
O    s Mg   s Buckingham    Buckingham A     1428.5000    eV        0.000 12.000
                            Buckingham rho  0.29450000    Ang
                            Buckingham C     0.0000000    eV*Ang^6
Mg   s Cl   s Buckingham    Buckingham A     4914.5400    eV        0.000 12.000
                            Buckingham rho  0.25700000    Ang
                            Buckingham C     0.0000000    eV*Ang^6
O    s Ca   s Buckingham    Buckingham A     1090.4000    eV        0.000 12.000
                            Buckingham rho  0.34370000    Ang
                            Buckingham C     0.0000000    eV*Ang^6
Cl   s Ca   s Buckingham    Buckingham A     2302.0000    eV        0.000 12.000
                            Buckingham rho  0.34020000    Ang
                            Buckingham C     0.0000000    eV*Ang^6
O    s Sr   s Buckingham    Buckingham A     959.10000    eV        0.000 12.000
                            Buckingham rho  0.37210000    Ang
                            Buckingham C     0.0000000    eV*Ang^6
Cl   s Sr   s Buckingham    Buckingham A     2191.0900    eV        0.000 12.000
                            Buckingham rho  0.34570000    Ang
                            Buckingham C     0.0000000    eV*Ang^6
O    s Ba   s Buckingham    Buckingham A     905.70000    eV        0.000 12.000
                            Buckingham rho  0.39760000    Ang
                            Buckingham C     0.0000000    eV*Ang^6
Cl   s Ba   s Buckingham    Buckingham A     2704.5500    eV        0.000 12.000
                            Buckingham rho  0.35280000    Ang
                            Buckingham C     0.0000000    eV*Ang^6

*  Output for configuration   1                                                *

  Components of energy :

  Interatomic potentials     =          39.54523045 eV
  Monopole - monopole (real) =        -173.49412932 eV
[...]
     58 z          0.000000      0.006909     0.006909    Cartesian *******
     59 x          2.202951      2.199807    -0.003144    Cartesian   -0.14
     59 y         13.217707     13.215741    -0.001966    Cartesian   -0.01
     59 z          8.811805      8.822218     0.010414    Cartesian    0.12
     60 x          0.000000      0.001407     0.001407    Cartesian *******
     60 y          6.608853      6.608431    -0.000423    Cartesian   -0.01
     60 z         -4.405902     -4.399043     0.006859    Cartesian   -0.16
     61 x          8.811805      8.810809    -0.000996    Cartesian   -0.01
     61 y          2.202951      2.204526     0.001575    Cartesian    0.07
     61 z         13.217707     13.218378     0.000671    Cartesian    0.01
     62 x         -4.405902     -4.414389    -0.008486    Cartesian    0.19
     62 y          0.000000     -0.009836    -0.009836    Cartesian *******
     62 z          8.811805      8.821641     0.009836    Cartesian    0.11
     63 x          0.000000      0.001830     0.001830    Cartesian *******
     63 y          0.000000     -0.000581    -0.000581    Cartesian *******
     63 z         13.217707     13.218926     0.001219    Cartesian    0.01
     64 x          8.811805      8.812973     0.001169    Cartesian    0.01
     64 y          0.000000      0.001442     0.001442    Cartesian *******
     64 z         -4.405902     -4.405267     0.000636    Cartesian   -0.01
     65 x         13.217707     13.217920     0.000213    Cartesian    0.00
     65 y          0.000000      0.000029     0.000029    Cartesian *******
     65 z          8.811805      8.811776    -0.000029    Cartesian   -0.00
     66 x         -4.405902     -4.363652     0.042251    Cartesian   -0.96
     66 y         11.014756     11.005541    -0.009215    Cartesian   -0.08
     66 z          4.405902      4.405902     0.000000    Cartesian    0.00
     67 x         13.217707     13.274748     0.057041    Cartesian    0.43
     67 y         -2.202951     -2.218450    -0.015499    Cartesian    0.70
     67 z          4.405902      4.405902     0.000000    Cartesian    0.00
     68 x         -2.202951     -2.211194    -0.008242    Cartesian    0.37
     68 y         -4.405902     -4.457180    -0.051278    Cartesian    1.16
     68 z          4.405902      4.405902     0.000000    Cartesian    0.00
     69 x         11.014756     11.007034    -0.007722    Cartesian   -0.07
     69 y         13.217707     13.177741    -0.039966    Cartesian   -0.30
     69 z          4.405902      4.405902     0.000000    Cartesian    0.00
     70 x          4.405902      4.402330    -0.003573    Cartesian   -0.08
     70 y         -2.202951     -2.202077     0.000874    Cartesian   -0.04
     70 z         13.217707     13.214799    -0.002908    Cartesian   -0.02
     71 x          4.405902      4.352506    -0.053396    Cartesian   -1.21
     71 y          4.405902      4.405902     0.000000    Cartesian    0.00
     71 z         15.420658     15.414002    -0.006656    Cartesian   -0.04
     72 x         -6.608853     -6.639522    -0.030668    Cartesian    0.46
     72 y          4.405902      4.405902     0.000000    Cartesian    0.00
     72 z          4.405902      4.405902     0.000000    Cartesian    0.00
     73 x         15.420658     15.450836     0.030178    Cartesian    0.20
     73 y          4.405902      4.405902     0.000000    Cartesian    0.00
     73 z          4.405902      4.405902     0.000000    Cartesian    0.00
     74 x          6.608853      6.614350     0.005497    Cartesian    0.08
     74 y          6.608853      6.609102     0.000249    Cartesian    0.00
     74 z         15.420658     15.415268    -0.005390    Cartesian   -0.03
     75 x         15.420658     15.430247     0.009589    Cartesian    0.06
     75 y          6.608853      6.615830     0.006977    Cartesian    0.11
     75 z          6.608853      6.615830     0.006977    Cartesian    0.11
     76 x         -6.608853     -6.622506    -0.013652    Cartesian    0.21
     76 y          2.202951      2.201443    -0.001508    Cartesian   -0.07
     76 z          6.608853      6.610361     0.001508    Cartesian    0.02
     77 x          2.202951      2.209252     0.006301    Cartesian    0.29
     77 y          2.202951      2.206101     0.003150    Cartesian    0.14
     77 z         15.420658     15.424880     0.004222    Cartesian    0.03
     78 x         11.014756     11.019998     0.005242    Cartesian    0.05
     78 y         -2.202951     -2.201531     0.001421    Cartesian   -0.06
     78 z         11.014756     11.013335    -0.001421    Cartesian   -0.01
     79 x         -2.202951     -2.198209     0.004742    Cartesian   -0.22
     79 y         11.014756     11.025164     0.010408    Cartesian    0.09
     79 z         11.014756     11.025164     0.010408    Cartesian    0.09
     80 x         13.217707     13.214190    -0.003517    Cartesian   -0.03
     80 y         -2.202951     -2.203820    -0.000869    Cartesian    0.04
     80 z          0.000000     -0.003895    -0.003895    Cartesian *******
     81 x         -4.405902     -4.416447    -0.010544    Cartesian    0.24
     81 y         11.014756     11.016749     0.001993    Cartesian    0.02
     81 z          8.811805      8.811908     0.000103    Cartesian    0.00
     82 x         -2.202951     -2.203938    -0.000987    Cartesian    0.04
     82 y         -4.405902     -4.403466     0.002436    Cartesian   -0.06
     82 z          0.000000      0.004698     0.004698    Cartesian *******
     83 x         11.014756     11.014796     0.000040    Cartesian    0.00
     83 y         13.217707     13.224715     0.007008    Cartesian    0.05
     83 z          8.811805      8.814284     0.002480    Cartesian    0.03
     84 x          0.000000     -0.009671    -0.009671    Cartesian *******
     84 y         -2.202951     -2.203282    -0.000331    Cartesian    0.02
     84 z         -4.405902     -4.403839     0.002063    Cartesian   -0.05
     85 x          8.811805      8.804141    -0.007664    Cartesian   -0.09
     85 y         11.014756     11.015150     0.000394    Cartesian    0.00
     85 z         13.217707     13.220918     0.003211    Cartesian    0.02
     86 x         -6.608853     -6.608943    -0.000089    Cartesian    0.00
     86 y          0.000000     -0.026791    -0.026791    Cartesian *******
     86 z          4.405902      4.405902     0.000000    Cartesian    0.00
     87 x         15.420658     15.430487     0.009829    Cartesian    0.06
     87 y          8.811805      8.819855     0.008050    Cartesian    0.09
     87 z          4.405902      4.405902     0.000000    Cartesian    0.00
     88 x          8.811805      8.835409     0.023604    Cartesian    0.27
     88 y         -6.608853     -6.610587    -0.001734    Cartesian    0.03
     88 z          4.405902      4.405902     0.000000    Cartesian    0.00
     89 x          0.000000      0.031241     0.031241    Cartesian *******
     89 y         15.420658     15.414347    -0.006311    Cartesian   -0.04
     89 z          4.405902      4.405902     0.000000    Cartesian    0.00
     90 x          4.405902      4.401767    -0.004136    Cartesian   -0.09
     90 y          8.811805      8.808928    -0.002877    Cartesian   -0.03
     90 z         15.420658     15.419202    -0.001456    Cartesian   -0.01
     91 x          4.405902      4.283766    -0.122137    Cartesian   -2.77
     91 y          4.405902      4.405902     0.000000    Cartesian    0.00
     91 z          4.405902      4.405902     0.000000    Cartesian    0.00
     92 x          6.608853      6.569634    -0.039220    Cartesian   -0.59
     92 y          4.405902      4.405902     0.000000    Cartesian    0.00
     92 z          4.405902      4.405902     0.000000    Cartesian    0.00
     93 x          6.608853      6.718982     0.110128    Cartesian    1.67
     93 y          6.608853      6.641357     0.032503    Cartesian    0.49
     93 z          6.608853      6.641357     0.032503    Cartesian    0.49
     94 x          2.202951      2.159678    -0.043273    Cartesian   -1.96
     94 y          2.202951      2.089431    -0.113520    Cartesian   -5.15
     94 z          6.608853      6.722374     0.113520    Cartesian    1.72
     95 x          4.405902      4.348461    -0.057442    Cartesian   -1.30
     95 y          4.405902      4.405902     0.000000    Cartesian    0.00
     95 z          8.811805      8.757148    -0.054656    Cartesian   -0.62
     96 x          0.000000     -0.177301    -0.177301    Cartesian *******
     96 y          4.405902      4.405902     0.000000    Cartesian    0.00
     96 z          4.405902      4.405902     0.000000    Cartesian    0.00
     97 x          8.811805      9.040279     0.228474    Cartesian    2.59
     97 y          4.405902      4.405902     0.000000    Cartesian    0.00
     97 z          4.405902      4.405902     0.000000    Cartesian    0.00
     98 x          8.811805      8.827812     0.016007    Cartesian    0.18
     98 y          4.405902      4.405902     0.000000    Cartesian    0.00
     98 z          8.811805      8.804885    -0.006919    Cartesian   -0.08
     99 x         -0.000000     -0.007395    -0.007395    Cartesian *******
     99 y          4.405902      4.405902     0.000000    Cartesian    0.00
     99 z          8.811805      8.800508    -0.011296    Cartesian   -0.13
    100 x          4.405902      4.409292     0.003390    Cartesian    0.08
    100 y          0.000000      0.002152     0.002152    Cartesian *******
    100 z          8.811805      8.809653    -0.002152    Cartesian   -0.02
    101 x          6.608853      6.611011     0.002158    Cartesian    0.03
    101 y          6.608853      6.593648    -0.015205    Cartesian   -0.23
    101 z         11.014756     10.994671    -0.020084    Cartesian   -0.18
    102 x          2.202951      2.217728     0.014776    Cartesian    0.67
    102 y          2.202951      2.210427     0.007476    Cartesian    0.34
    102 z         11.014756     11.030404     0.015648    Cartesian    0.14
    103 x         -2.202951     -2.274577    -0.071626    Cartesian    3.25
    103 y          2.202951      2.134249    -0.068702    Cartesian   -3.12
    103 z          6.608853      6.677556     0.068702    Cartesian    1.04
    104 x         11.014756     11.073046     0.058290    Cartesian    0.53
    104 y          6.608853      6.588242    -0.020612    Cartesian   -0.31
    104 z          2.202951      2.223563     0.020612    Cartesian    0.94
    105 x          8.811805      8.815722     0.003918    Cartesian    0.04
    105 y          8.811805      8.818375     0.006571    Cartesian    0.07
    105 z          0.000000     -0.006571    -0.006571    Cartesian *******
    106 x          0.000000     -0.014293    -0.014293    Cartesian *******
    106 y          8.811805      8.819965     0.008160    Cartesian    0.09
    106 z          8.811805      8.819965     0.008160    Cartesian    0.09
    107 x          4.405902      4.409661     0.003758    Cartesian    0.09
    107 y          4.405902      4.405902     0.000000    Cartesian    0.00
    107 z         13.217707     13.202719    -0.014987    Cartesian   -0.11
    108 x         13.217707     13.296167     0.078460    Cartesian    0.59
    108 y          4.405902      4.405902     0.000000    Cartesian    0.00
    108 z          4.405902      4.405902     0.000000    Cartesian    0.00
    109 x         -4.405902     -4.462460    -0.056558    Cartesian    1.28
    109 y          4.405902      4.405902     0.000000    Cartesian    0.00
    109 z          4.405902      4.405902     0.000000    Cartesian    0.00
    110 x         11.014756     11.027937     0.013181    Cartesian    0.12
    110 y          6.608853      6.603816    -0.005038    Cartesian   -0.08
    110 z         11.014756     11.007783    -0.006973    Cartesian   -0.06
    111 x         -2.202951     -2.194214     0.008737    Cartesian   -0.40
    111 y          2.202951      2.200429    -0.002522    Cartesian   -0.11
    111 z         11.014756     11.037095     0.022339    Cartesian    0.20
    112 x          2.202951      2.218790     0.015839    Cartesian    0.72
    112 y         11.014756     11.015781     0.001025    Cartesian    0.01
    112 z         11.014756     11.015781     0.001025    Cartesian    0.01
    113 x          6.608853      6.624981     0.016127    Cartesian    0.24
    113 y         11.014756     11.013016    -0.001739    Cartesian   -0.02
    113 z         11.014756     11.013016    -0.001739    Cartesian   -0.02
    114 x         -4.405902     -4.408197    -0.002294    Cartesian    0.05
    114 y          4.405902      4.405902     0.000000    Cartesian    0.00
    114 z          8.811805      8.802134    -0.009671    Cartesian   -0.11
    115 x          0.000000     -0.011507    -0.011507    Cartesian *******
    115 y          4.405902      4.405902     0.000000    Cartesian    0.00
    115 z         13.217707     13.208789    -0.008917    Cartesian   -0.07
    116 x         13.217707     13.233037     0.015331    Cartesian    0.12
    116 y          4.405902      4.405902     0.000000    Cartesian    0.00
    116 z          8.811805      8.835070     0.023265    Cartesian    0.26
    117 x          8.811805      8.801333    -0.010472    Cartesian   -0.12
    117 y          4.405902      4.405902     0.000000    Cartesian    0.00
    117 z         -4.405902     -4.404613     0.001290    Cartesian   -0.03
    118 x          4.405902      4.405065    -0.000837    Cartesian   -0.02
    118 y          0.000000      0.001561     0.001561    Cartesian *******
    118 z         13.217707     13.214967    -0.002740    Cartesian   -0.02
    119 x         -4.405902     -4.414389    -0.008487    Cartesian    0.19
    119 y          0.000000     -0.009845    -0.009845    Cartesian *******
    119 z          8.811805      8.821649     0.009845    Cartesian    0.11
    120 x          0.000000      0.001834     0.001834    Cartesian *******
    120 y          0.000000     -0.000582    -0.000582    Cartesian *******
    120 z         13.217707     13.218927     0.001220    Cartesian    0.01
    121 x          8.811805      8.812979     0.001174    Cartesian    0.01
    121 y          0.000000      0.001442     0.001442    Cartesian *******
    121 z         -4.405902     -4.405263     0.000640    Cartesian   -0.01
    122 x         13.217707     13.217921     0.000214    Cartesian    0.00
    122 y          0.000000      0.000030     0.000030    Cartesian *******
    122 z          8.811805      8.811774    -0.000030    Cartesian   -0.00
    123 x          6.608853      6.615846     0.006992    Cartesian    0.11
    123 y          6.608853      6.608843    -0.000011    Cartesian   -0.00
    123 z         15.420658     15.413665    -0.006993    Cartesian   -0.05
    124 x         15.420658     15.430037     0.009379    Cartesian    0.06
    124 y          6.608853      6.615764     0.006911    Cartesian    0.10
    124 z          6.608853      6.615764     0.006911    Cartesian    0.10
    125 x         -6.608853     -6.621920    -0.013067    Cartesian    0.20
    125 y          2.202951      2.202478    -0.000473    Cartesian   -0.02
    125 z          6.608853      6.609327     0.000473    Cartesian    0.01
    126 x         11.014756     11.020558     0.005803    Cartesian    0.05
    126 y         -2.202951     -2.200810     0.002141    Cartesian   -0.10
    126 z         11.014756     11.012614    -0.002141    Cartesian   -0.02
    127 x          2.202951      2.210656     0.007705    Cartesian    0.35
    127 y          2.202951      2.206513     0.003562    Cartesian    0.16
    127 z         15.420658     15.426700     0.006042    Cartesian    0.04
    128 x         -2.202951     -2.196722     0.006229    Cartesian   -0.28
    128 y         11.014756     11.026514     0.011758    Cartesian    0.11
    128 z         11.014756     11.026514     0.011758    Cartesian    0.11

  Time to end of optimisation  =       25.9276 seconds

  Timing analysis for GULP :

  Task / Subroutine                                          Time (Seconds)
  Calculation of reciprocal space energy and derivatives          0.0432
  Calculation of real space energy and derivatives                0.5120
  Calculation for region 1 energy and derivatives (2-b)          16.1999
  Calculation for region 2a energy                                8.4601
  Calculation and manipulation of Hessian matrix                  0.5551
  Calculation of matrix inversion                                 0.0416
  Symmetry generation of equivalent positions                     0.0018

  Dump file written as Na3OCl.grs

  Job Finished at 12:37.29  2nd February   2021