  Job Started  at 12:37.01  2nd February   2021

  Number of CPUs =     1

  Total number of configurations input =      1

*  Input for Configuration =   1                                               *

  Formula = O8Cl8Na24

  Number of irreducible atoms/shells =      56

  Total number atoms/shells =      56

  Dimensionality = 3               :  Bulk

  Supercell dimensions :  x =   2  y =   2  z =   2

  Cartesian lattice vectors (Angstroms) :

        9.008000    0.000000    0.000000
        0.000000    9.008000    0.000000
        0.000000    0.000000    9.008000

  Cell parameters (Angstroms/Degrees):

  a =       9.0080    alpha =  90.0000
  b =       9.0080    beta  =  90.0000
  c =       9.0080    gamma =  90.0000

  Initial cell volume =         730.945729 Angs**3

  Temperature of configuration =   0.00     K

  Pressure of configuration =         0.000 GPa

  Fractional coordinates of asymmetric unit :

   No.  Atomic       x           y          z         Charge      Occupancy
        Label      (Frac)      (Frac)     (Frac)        (e)         (Frac)
      1 O     c    0.000000    0.000000    0.000000     0.18300    1.000000
      2 O     c    0.000000 *  0.000000 *  0.500000 *   0.18300    1.000000
      3 O     c    0.000000 *  0.500000 *  0.000000 *   0.18300    1.000000
      4 O     c    0.000000 *  0.500000 *  0.500000 *   0.18300    1.000000
      5 O     c    0.500000 *  0.000000 *  0.000000 *   0.18300    1.000000
      6 O     c    0.500000 *  0.000000 *  0.500000 *   0.18300    1.000000
      7 O     c    0.500000 *  0.500000 *  0.000000 *   0.18300    1.000000
      8 O     c    0.500000 *  0.500000 *  0.500000 *   0.18300    1.000000
      9 Cl    c    0.250000 *  0.250000 *  0.250000 *   1.48500    1.000000
     10 Cl    c    0.250000 *  0.250000 *  0.750000 *   1.48500    1.000000
     11 Cl    c    0.250000 *  0.750000 *  0.250000 *   1.48500    1.000000
     12 Cl    c    0.250000 *  0.750000 *  0.750000 *   1.48500    1.000000
     13 Cl    c    0.750000 *  0.250000 *  0.250000 *   1.48500    1.000000
     14 Cl    c    0.750000 *  0.250000 *  0.750000 *   1.48500    1.000000
     15 Cl    c    0.750000 *  0.750000 *  0.250000 *   1.48500    1.000000
     16 Cl    c    0.750000 *  0.750000 *  0.750000 *   1.48500    1.000000
     17 Na    c    0.250000 *  0.000000 *  0.000000 *   1.00000    1.000000
     18 Na    c    0.250000 *  0.000000 *  0.500000 *   1.00000    1.000000
     19 Na    c    0.250000 *  0.500000 *  0.000000 *   1.00000    1.000000
     20 Na    c    0.250000 *  0.500000 *  0.500000 *   1.00000    1.000000
     21 Na    c    0.750000 *  0.000000 *  0.000000 *   1.00000    1.000000
     22 Na    c    0.750000 *  0.000000 *  0.500000 *   1.00000    1.000000
     23 Na    c    0.750000 *  0.500000 *  0.000000 *   1.00000    1.000000
     24 Na    c    0.750000 *  0.500000 *  0.500000 *   1.00000    1.000000
     25 Na    c    0.000000 *  0.250000 *  0.000000 *   1.00000    1.000000
     26 Na    c    0.000000 *  0.250000 *  0.500000 *   1.00000    1.000000
     27 Na    c    0.000000 *  0.750000 *  0.000000 *   1.00000    1.000000
     28 Na    c    0.000000 *  0.750000 *  0.500000 *   1.00000    1.000000
     29 Na    c    0.500000 *  0.250000 *  0.000000 *   1.00000    1.000000
     30 Na    c    0.500000 *  0.250000 *  0.500000 *   1.00000    1.000000
     31 Na    c    0.500000 *  0.750000 *  0.000000 *   1.00000    1.000000
     32 Na    c    0.500000 *  0.750000 *  0.500000 *   1.00000    1.000000
     33 Na    c    0.000000 *  0.000000 *  0.250000 *   1.00000    1.000000
     34 Na    c    0.000000 *  0.000000 *  0.750000 *   1.00000    1.000000
     35 Na    c    0.000000 *  0.500000 *  0.250000 *   1.00000    1.000000
     36 Na    c    0.000000 *  0.500000 *  0.750000 *   1.00000    1.000000
     37 Na    c    0.500000 *  0.000000 *  0.250000 *   1.00000    1.000000
     38 Na    c    0.500000 *  0.000000 *  0.750000 *   1.00000    1.000000
     39 Na    c    0.500000 *  0.500000 *  0.250000 *   1.00000    1.000000
     40 Na    c    0.500000 *  0.500000 *  0.750000 *   1.00000    1.000000
     41 O     s    0.000000 *  0.000000 *  0.000000 *  -2.18300    1.000000
     42 O     s    0.000000 *  0.000000 *  0.500000 *  -2.18300    1.000000
     43 O     s    0.000000 *  0.500000 *  0.000000 *  -2.18300    1.000000
     44 O     s    0.000000 *  0.500000 *  0.500000 *  -2.18300    1.000000
     45 O     s    0.500000 *  0.000000 *  0.000000 *  -2.18300    1.000000
     46 O     s    0.500000 *  0.000000 *  0.500000 *  -2.18300    1.000000
     47 O     s    0.500000 *  0.500000 *  0.000000 *  -2.18300    1.000000
     48 O     s    0.500000 *  0.500000 *  0.500000 *  -2.18300    1.000000
     49 Cl    s    0.250000 *  0.250000 *  0.250000 *  -2.48500    1.000000
     50 Cl    s    0.250000 *  0.250000 *  0.750000 *  -2.48500    1.000000
     51 Cl    s    0.250000 *  0.750000 *  0.250000 *  -2.48500    1.000000
     52 Cl    s    0.250000 *  0.750000 *  0.750000 *  -2.48500    1.000000
     53 Cl    s    0.750000 *  0.250000 *  0.250000 *  -2.48500    1.000000
     54 Cl    s    0.750000 *  0.250000 *  0.750000 *  -2.48500    1.000000
     55 Cl    s    0.750000 *  0.750000 *  0.250000 *  -2.48500    1.000000
     56 Cl    s    0.750000 *  0.750000 *  0.750000 *  -2.48500    1.000000

*  General input information                                                   *

  Species output for all configurations :

  Species    Type    Atomic    Atomic    Charge       Radii (Angs)     Library
                     Number     Mass       (e)     Cova   Ionic  VDW   Symbol
    Na       Core       11      22.99   1.000000   0.970  0.000  2.300
    O        Core        8      16.00   0.183000   0.730  0.000  1.360
    O        Shell       8       0.00  -2.183000   0.730  0.000  1.360
    Cl       Core       17      35.45   1.485000   0.990  0.000  1.650
    Cl       Shell      17       0.00  -2.485000   0.990  0.000  1.650
    Mg       Core       12      24.31   0.415000   1.100  0.000  0.000
    Mg       Shell      12       0.00   1.585000   1.100  0.000  0.000
    Ca       Core       20      40.08  -1.135000   0.990  0.000  0.000
    Ca       Shell      20       0.00   3.135000   0.990  0.000  0.000
    Sr       Core       38      87.62  -1.251000   1.120  0.000  0.000
    Sr       Shell      38       0.00   3.251000   1.120  0.000  0.000
    Ba       Core       56     137.33  -7.203000   1.340  0.000  0.000
    Ba       Shell      56       0.00   9.203000   1.340  0.000  0.000

  Lattice summation method               =    Ewald          (3-D)
                                         =    Parry          (2-D)
                                         =    Saunders et al (1-D)
  Accuracy factor for lattice sums       =   12.000

  Analytic derivatives to be used

  Time limit = Infinity

  Maximum range for interatomic potentials =    100000.000000 Angstroms

  General interatomic potentials :

Atom  Types   Potential      Parameter       Value         Units   Cutoffs(Ang)
  1     2                                                            Min /  Max
O    c O    s Spring (c-s)  Spring k 2       593.71600    eV*Ang^-2 0.000  0.800
                            Spring k 4       0.0000000    eV*Ang^-4
Cl   c Cl   s Spring (c-s)  Spring k 2       29.380000    eV*Ang^-2 0.000  0.800
                            Spring k 4       0.0000000    eV*Ang^-4
Mg   c Mg   s Spring (c-s)  Spring k 2       361.60000    eV*Ang^-2 0.000  0.800
                            Spring k 4       0.0000000    eV*Ang^-4
Ca   c Ca   s Spring (c-s)  Spring k 2       110.20000    eV*Ang^-2 0.000  0.800
                            Spring k 4       0.0000000    eV*Ang^-4
Sr   c Sr   s Spring (c-s)  Spring k 2       71.700000    eV*Ang^-2 0.000  0.800
                            Spring k 4       0.0000000    eV*Ang^-4
Ba   c Ba   s Spring (c-s)  Spring k 2       495.20000    eV*Ang^-2 0.000  0.800
                            Spring k 4       0.0000000    eV*Ang^-4
Na   c Na   c Buckingham    Buckingham A     1788.1900    eV        0.000 12.000
                            Buckingham rho  0.15900000    Ang
                            Buckingham C     0.0000000    eV*Ang^6
Na   c O    s Buckingham    Buckingham A     588.38000    eV        0.000 12.000
                            Buckingham rho  0.33800000    Ang
                            Buckingham C     0.0000000    eV*Ang^6
Na   c Cl   s Buckingham    Buckingham A     1170.4100    eV        0.000 12.000
                            Buckingham rho  0.31500000    Ang
                            Buckingham C     0.0000000    eV*Ang^6
O    s O    s Buckingham    Buckingham A     22764.300    eV        0.000 12.000
                            Buckingham rho  0.14900000    Ang
                            Buckingham C     13.190000    eV*Ang^6
O    s Cl   s Buckingham    Buckingham A     8286.9100    eV        0.000 12.000
                            Buckingham rho  0.25900000    Ang
                            Buckingham C     62.200000    eV*Ang^6
Cl   s Cl   s Buckingham    Buckingham A     1227.2000    eV        0.000 12.000
                            Buckingham rho  0.32100000    Ang
                            Buckingham C     14.530000    eV*Ang^6
O    s Mg   s Buckingham    Buckingham A     1428.5000    eV        0.000 12.000
                            Buckingham rho  0.29450000    Ang
                            Buckingham C     0.0000000    eV*Ang^6
Mg   s Cl   s Buckingham    Buckingham A     4914.5400    eV        0.000 12.000
                            Buckingham rho  0.25700000    Ang
                            Buckingham C     0.0000000    eV*Ang^6
O    s Ca   s Buckingham    Buckingham A     1090.4000    eV        0.000 12.000
                            Buckingham rho  0.34370000    Ang
                            Buckingham C     0.0000000    eV*Ang^6
Cl   s Ca   s Buckingham    Buckingham A     2302.0000    eV        0.000 12.000
                            Buckingham rho  0.34020000    Ang
                            Buckingham C     0.0000000    eV*Ang^6
O    s Sr   s Buckingham    Buckingham A     959.10000    eV        0.000 12.000
                            Buckingham rho  0.37210000    Ang
                            Buckingham C     0.0000000    eV*Ang^6
Cl   s Sr   s Buckingham    Buckingham A     2191.0900    eV        0.000 12.000
                            Buckingham rho  0.34570000    Ang
                            Buckingham C     0.0000000    eV*Ang^6
O    s Ba   s Buckingham    Buckingham A     905.70000    eV        0.000 12.000
                            Buckingham rho  0.39760000    Ang
                            Buckingham C     0.0000000    eV*Ang^6
Cl   s Ba   s Buckingham    Buckingham A     2704.5500    eV        0.000 12.000
                            Buckingham rho  0.35280000    Ang
                            Buckingham C     0.0000000    eV*Ang^6

*  Output for configuration   1                                                *

  Components of energy :

  Interatomic potentials     =          39.54523045 eV
  Monopole - monopole (real) =        -173.49412932 eV
[...]
    520 x          0.000000      0.002955     0.002955    Cartesian *******
    520 y          4.405902      4.405940     0.000037    Cartesian    0.00
    520 z         -4.405902     -4.407258    -0.001355    Cartesian    0.03
    521 x          8.811805      8.817377     0.005572    Cartesian    0.06
    521 y          0.000000     -0.003776    -0.003776    Cartesian *******
    521 z         13.217707     13.216646    -0.001061    Cartesian   -0.01
    522 x         13.217707     13.219105     0.001398    Cartesian    0.01
    522 y          0.000000      0.000069     0.000069    Cartesian *******
    522 z         -0.000000      0.002823     0.002823    Cartesian *******
    523 x         13.217707     13.220627     0.002920    Cartesian    0.02
    523 y          4.405902      4.407433     0.001530    Cartesian    0.03
    523 z         -0.000000     -0.000857    -0.000857    Cartesian *******
    524 x         11.014756     10.963314    -0.051442    Cartesian   -0.47
    524 y          6.608853      6.562831    -0.046023    Cartesian   -0.70
    524 z         11.014756     10.958144    -0.056612    Cartesian   -0.51
    525 x         11.014756     11.059630     0.044875    Cartesian    0.41
    525 y         -2.202951     -2.172806     0.030145    Cartesian   -1.37
    525 z         11.014756     11.011808    -0.002948    Cartesian   -0.03
    526 x         11.014756     11.021554     0.006798    Cartesian    0.06
    526 y         -2.202951     -2.194154     0.008798    Cartesian   -0.40
    526 z         -2.202951     -2.203476    -0.000525    Cartesian    0.02
    527 x         11.014756     11.019990     0.005234    Cartesian    0.05
    527 y          6.608853      6.617431     0.008578    Cartesian    0.13
    527 z         -2.202951     -2.195117     0.007834    Cartesian   -0.36
    528 x         -2.202951     -2.168671     0.034280    Cartesian   -1.56
    528 y          6.608853      6.652535     0.043682    Cartesian    0.66
    528 z         11.014756     11.013955    -0.000801    Cartesian   -0.01
    529 x         -2.202951     -2.267929    -0.064978    Cartesian    2.95
    529 y         -2.202951     -2.251950    -0.048999    Cartesian    2.22
    529 z         11.014756     11.070169     0.055413    Cartesian    0.50
    530 x         -2.202951     -2.197061     0.005890    Cartesian   -0.27
    530 y         -2.202951     -2.193324     0.009627    Cartesian   -0.44
    530 z         -2.202951     -2.212421    -0.009470    Cartesian    0.43
    531 x         -2.202951     -2.196874     0.006077    Cartesian   -0.28
    531 y          6.608853      6.618363     0.009510    Cartesian    0.14
    531 z         -2.202951     -2.204410    -0.001459    Cartesian    0.07
    532 x          4.405902      4.416158     0.010255    Cartesian    0.23
    532 y         -4.405902     -4.413658    -0.007756    Cartesian    0.18
    532 z         13.217707     13.222027     0.004320    Cartesian    0.03
    533 x         13.217707     13.218752     0.001045    Cartesian    0.01
    533 y         -4.405902     -4.406409    -0.000507    Cartesian    0.01
    533 z          4.405902      4.404732    -0.001171    Cartesian   -0.03
    534 x         -4.405902     -4.411131    -0.005229    Cartesian    0.12
    534 y         -4.405902     -4.415562    -0.009660    Cartesian    0.22
    534 z          4.405902      4.393684    -0.012218    Cartesian   -0.28
    535 x          4.405902      4.411302     0.005400    Cartesian    0.12
    535 y          8.811805      8.807032    -0.004773    Cartesian   -0.05
    535 z         13.217707     13.216363    -0.001344    Cartesian   -0.01
    536 x         -4.405902     -4.406925    -0.001023    Cartesian    0.02
    536 y          8.811805      8.812540     0.000735    Cartesian    0.01
    536 z          4.405902      4.405990     0.000088    Cartesian    0.00
    537 x         13.217707     13.213785    -0.003922    Cartesian   -0.03
    537 y          8.811805      8.806410    -0.005395    Cartesian   -0.06
    537 z          4.405902      4.413965     0.008063    Cartesian    0.18
    538 x          4.405902      4.407356     0.001454    Cartesian    0.03
    538 y         -4.405902     -4.405491     0.000411    Cartesian   -0.01
    538 z         -4.405902     -4.406285    -0.000383    Cartesian    0.01
    539 x          4.405902      4.406817     0.000914    Cartesian    0.02
    539 y          8.811805      8.811649    -0.000155    Cartesian   -0.00
    539 z         -4.405902     -4.407108    -0.001206    Cartesian    0.03
    540 x          4.405902      4.408168     0.002266    Cartesian    0.05
    540 y         -8.811805     -8.813106    -0.001301    Cartesian    0.01
    540 z          4.405902      4.405051    -0.000851    Cartesian   -0.02
    541 x          4.405902      4.408150     0.002248    Cartesian    0.05
    541 y         13.217707     13.217990     0.000283    Cartesian    0.00
    541 z          4.405902      4.407506     0.001603    Cartesian    0.04
    542 x          6.608853      6.618160     0.009306    Cartesian    0.14
    542 y          2.202951      2.213280     0.010329    Cartesian    0.47
    542 z         15.420658     15.421259     0.000601    Cartesian    0.00
    543 x         15.420658     15.414903    -0.005755    Cartesian   -0.04
    543 y          2.202951      2.211925     0.008974    Cartesian    0.41
    543 z          6.608853      6.606021    -0.002832    Cartesian   -0.04
    544 x         -6.608853     -6.617544    -0.008691    Cartesian    0.13
    544 y          2.202951      2.208132     0.005181    Cartesian    0.24
    544 z          6.608853      6.603909    -0.004944    Cartesian   -0.07
    545 x         15.420658     15.421733     0.001075    Cartesian    0.01
    545 y          2.202951      2.211083     0.008132    Cartesian    0.37
    545 z          2.202951      2.209690     0.006739    Cartesian    0.31
    546 x         -6.608853     -6.611601    -0.002748    Cartesian    0.04
    546 y          2.202951      2.211232     0.008281    Cartesian    0.38
    546 z          2.202951      2.193763    -0.009189    Cartesian   -0.42
    547 x          2.202951      2.219894     0.016943    Cartesian    0.77
    547 y          2.202951      2.211203     0.008252    Cartesian    0.37
    547 z         15.420658     15.431603     0.010945    Cartesian    0.07
    548 x          6.608853      6.612431     0.003577    Cartesian    0.05
    548 y          2.202951      2.206869     0.003917    Cartesian    0.18
    548 z         -6.608853     -6.609178    -0.000324    Cartesian    0.00
    549 x          2.202951      2.206996     0.004044    Cartesian    0.18
    549 y          2.202951      2.206052     0.003101    Cartesian    0.14
    549 z         -6.608853     -6.610276    -0.001422    Cartesian    0.02
    550 x          2.202951      2.216219     0.013268    Cartesian    0.60
    550 y         -6.608853     -6.622205    -0.013352    Cartesian    0.20
    550 z         11.014756     11.001776    -0.012980    Cartesian   -0.12
    551 x          6.608853      6.619077     0.010223    Cartesian    0.15
    551 y         -6.608853     -6.614294    -0.005441    Cartesian    0.08
    551 z         11.014756     11.008937    -0.005818    Cartesian   -0.05
    552 x         -2.202951     -2.187656     0.015295    Cartesian   -0.69
    552 y         -6.608853     -6.629889    -0.021035    Cartesian    0.32
    552 z          6.608853      6.596729    -0.012125    Cartesian   -0.18
    553 x          2.202951      2.209520     0.006569    Cartesian    0.30
    553 y         -6.608853     -6.606022     0.002831    Cartesian   -0.04
    553 z         -2.202951     -2.210425    -0.007474    Cartesian    0.34
    554 x          2.202951      2.218024     0.015073    Cartesian    0.68
    554 y         11.014756     11.012179    -0.002577    Cartesian   -0.02
    554 z         11.014756     11.017581     0.002826    Cartesian    0.03
    555 x          6.608853      6.621208     0.012355    Cartesian    0.19
    555 y         11.014756     11.001108    -0.013647    Cartesian   -0.12
    555 z         11.014756     11.025402     0.010647    Cartesian    0.10
    556 x         11.014756     11.026328     0.011572    Cartesian    0.11
    556 y         -6.608853     -6.606354     0.002499    Cartesian   -0.04
    556 z          2.202951      2.195241    -0.007710    Cartesian   -0.35
    557 x         -2.202951     -2.201233     0.001718    Cartesian   -0.08
    557 y         -6.608853     -6.613598    -0.004745    Cartesian    0.07
    557 z          2.202951      2.185000    -0.017951    Cartesian   -0.81
    558 x         11.014756     11.034293     0.019537    Cartesian    0.18
    558 y         -6.608853     -6.598580     0.010273    Cartesian   -0.16
    558 z          6.608853      6.602521    -0.006333    Cartesian   -0.10
    559 x          2.202951      2.210401     0.007449    Cartesian    0.34
    559 y         11.014756     11.020586     0.005830    Cartesian    0.05
    559 z         -2.202951     -2.198112     0.004839    Cartesian   -0.22
    560 x         -2.202951     -2.187860     0.015091    Cartesian   -0.69
    560 y         11.014756     11.024583     0.009827    Cartesian    0.09
    560 z          6.608853      6.613247     0.004394    Cartesian    0.07
    561 x         11.014756     11.022450     0.007694    Cartesian    0.07
    561 y         11.014756     11.000173    -0.014583    Cartesian   -0.13
    561 z          6.608853      6.618934     0.010081    Cartesian    0.15
    562 x         11.014756     11.016701     0.001945    Cartesian    0.02
    562 y         11.014756     11.011009    -0.003747    Cartesian   -0.03
    562 z          2.202951      2.220073     0.017122    Cartesian    0.78
    563 x         -2.202951     -2.192015     0.010936    Cartesian   -0.50
    563 y         11.014756     11.019828     0.005073    Cartesian    0.05
    563 z          2.202951      2.208014     0.005063    Cartesian    0.23
    564 x          6.608853      6.616847     0.007993    Cartesian    0.12
    564 y         -6.608853     -6.604579     0.004274    Cartesian   -0.06
    564 z         -2.202951     -2.209259    -0.006308    Cartesian    0.29
    565 x          6.608853      6.615010     0.006156    Cartesian    0.09
    565 y         11.014756     11.018485     0.003729    Cartesian    0.03
    565 z         -2.202951     -2.196088     0.006863    Cartesian   -0.31
    566 x         -4.405902     -4.409209    -0.003307    Cartesian    0.08
    566 y         -4.405902     -4.402536     0.003367    Cartesian   -0.08
    566 z          8.811805      8.809738    -0.002066    Cartesian   -0.02
    567 x         -4.405902     -4.405590     0.000313    Cartesian   -0.01
    567 y          8.811805      8.811912     0.000107    Cartesian    0.00
    567 z          8.811805      8.810972    -0.000832    Cartesian   -0.01
    568 x          0.000000     -0.003021    -0.003021    Cartesian *******
    568 y         -4.405902     -4.411812    -0.005910    Cartesian    0.13
    568 z         13.217707     13.222727     0.005020    Cartesian    0.04
    569 x         13.217707     13.221008     0.003301    Cartesian    0.02
    569 y         -4.405902     -4.409798    -0.003896    Cartesian    0.09
    569 z          8.811805      8.811525    -0.000279    Cartesian   -0.00
    570 x         -4.405902     -4.407276    -0.001374    Cartesian    0.03
    570 y         -4.405902     -4.404893     0.001009    Cartesian   -0.02
    570 z         -0.000000     -0.002069    -0.002069    Cartesian *******
    571 x          0.000000      0.007130     0.007130    Cartesian *******
    571 y          8.811805      8.809495    -0.002310    Cartesian   -0.03
    571 z         13.217707     13.214322    -0.003385    Cartesian   -0.03
    572 x          8.811805      8.812823     0.001018    Cartesian    0.01
    572 y         -4.405902     -4.405285     0.000618    Cartesian   -0.01
    572 z         -4.405902     -4.406988    -0.001086    Cartesian    0.02
    573 x          0.000000     -0.000304    -0.000304    Cartesian *******
    573 y         -4.405902     -4.406158    -0.000255    Cartesian    0.01
    573 z         -4.405902     -4.405142     0.000760    Cartesian   -0.02
    574 x         -4.405902     -4.405789     0.000114    Cartesian   -0.00
    574 y          8.811805      8.813091     0.001287    Cartesian    0.01
    574 z         -0.000000      0.000231     0.000231    Cartesian *******
    575 x         13.217707     13.218205     0.000499    Cartesian    0.00
    575 y         -4.405902     -4.405201     0.000701    Cartesian   -0.02
    575 z         -0.000000     -0.001973    -0.001973    Cartesian *******
    576 x          8.811805      8.821196     0.009391    Cartesian    0.11
    576 y         -4.405902     -4.412692    -0.006790    Cartesian    0.15
    576 z         13.217707     13.223975     0.006268    Cartesian    0.05
    577 x          0.000000      0.001116     0.001116    Cartesian *******
    577 y          8.811805      8.812842     0.001037    Cartesian    0.01
    577 z         -4.405902     -4.405781     0.000121    Cartesian   -0.00
    578 x         13.217707     13.216400    -0.001307    Cartesian   -0.01
    578 y          8.811805      8.811485    -0.000319    Cartesian   -0.00
    578 z          8.811805      8.813161     0.001356    Cartesian    0.02
    579 x          8.811805      8.810451    -0.001354    Cartesian   -0.02
    579 y          8.811805      8.806380    -0.005424    Cartesian   -0.06
    579 z         13.217707     13.213012    -0.004695    Cartesian   -0.04
    580 x          8.811805      8.811841     0.000036    Cartesian    0.00
    580 y          8.811805      8.811980     0.000176    Cartesian    0.00
    580 z         -4.405902     -4.406716    -0.000814    Cartesian    0.02
    581 x         13.217707     13.217378    -0.000329    Cartesian   -0.00
    581 y          8.811805      8.813154     0.001350    Cartesian    0.02
    581 z         -0.000000      0.001297     0.001297    Cartesian *******
    582 x          4.405902      4.413205     0.007303    Cartesian    0.17
    582 y         -8.811805     -8.809844     0.001961    Cartesian   -0.02
    582 z          8.811805      8.810940    -0.000865    Cartesian   -0.01
    583 x          0.000000      0.001467     0.001467    Cartesian *******
    583 y         -8.811805     -8.813345    -0.001540    Cartesian    0.02
    583 z          4.405902      4.403035    -0.002867    Cartesian   -0.07
    584 x          4.405902      4.407343     0.001441    Cartesian    0.03
    584 y         -8.811805     -8.812269    -0.000464    Cartesian    0.01
    584 z         -0.000000     -0.002911    -0.002911    Cartesian *******
    585 x          8.811805      8.814503     0.002698    Cartesian    0.03
    585 y         -8.811805     -8.813901    -0.002097    Cartesian    0.02
    585 z          4.405902      4.404888    -0.001015    Cartesian   -0.02
    586 x          0.000000      0.002444     0.002444    Cartesian *******
    586 y         13.217707     13.216915    -0.000792    Cartesian   -0.01
    586 z          4.405902      4.406724     0.000821    Cartesian    0.02
    587 x          8.811805      8.812997     0.001192    Cartesian    0.01
    587 y         13.217707     13.216574    -0.001133    Cartesian   -0.01
    587 z          4.405902      4.408145     0.002242    Cartesian    0.05
    588 x          4.405902      4.409435     0.003533    Cartesian    0.08
    588 y         13.217707     13.218483     0.000776    Cartesian    0.01
    588 z          8.811805      8.812342     0.000538    Cartesian    0.01
    589 x          4.405902      4.407271     0.001369    Cartesian    0.03
    589 y         13.217707     13.217068    -0.000639    Cartesian   -0.00
    589 z         -0.000000      0.001620     0.001620    Cartesian *******

  Time to end of optimisation  =      116.1745 seconds

  Timing analysis for GULP :

  Task / Subroutine                                          Time (Seconds)
  Calculation of reciprocal space energy and derivatives          0.0184
  Calculation of real space energy and derivatives                0.1616
  Calculation for region 1 energy and derivatives (2-b)          65.9885
  Calculation for region 2a energy                               36.4173
  Calculation and manipulation of Hessian matrix                  0.0099
  Calculation of matrix inversion                                13.1442
  Symmetry generation of equivalent positions                     0.0018

  Dump file written as Na3OCl.grs

  **** GULP has completed with 1 warning - beware! ****

  Job Finished at 12:39.01  2nd February   2021