  Job Started  at 15:47.03  4th February   2021

  Number of CPUs =     1

  Total number of configurations input =      1

*  Input for Configuration =   1                                               *

  Formula = ClONa3

  Number of irreducible atoms/shells =       5

  Total number atoms/shells =       7

  Dimensionality = 3               :  Bulk

  Symmetry :

  Crystal family                   :  Cubic
  Crystal class  (Groth - 1921)    :  Cubic Hexakisoctahedral

  Space group (centrosymmetric)    :  P M 3 M

  Patterson group                  :  P m -3 m

  Cartesian lattice vectors (Angstroms) :

        4.504000    0.000000    0.000000
        0.000000    4.504000    0.000000
        0.000000    0.000000    4.504000

  Cell parameters (Angstroms/Degrees):

  a =       4.5040    alpha =  90.0000
  b =       4.5040    beta  =  90.0000
  c =       4.5040    gamma =  90.0000

  Initial cell volume =          91.368216 Angs**3

  Temperature of configuration =   0.00     K

  Pressure of configuration =         0.000 GPa

  Fractional coordinates of asymmetric unit :

   No.  Atomic       x           y          z         Charge      Occupancy
        Label      (Frac)      (Frac)     (Frac)        (e)         (Frac)
      1 Cl    c    0.000000    0.000000    0.000000     1.48500    1.000000
      2 O     c    0.500000    0.500000    0.500000     0.18300    1.000000
      3 Na    c    0.500000    0.500000    0.000000     1.00000    1.000000
      4 Cl    s    0.000000    0.000000    0.000000    -2.48500    1.000000
      5 O     s    0.500000    0.500000    0.500000    -2.18300    1.000000

  Constraints :

  Constraint no.      Unconstrained     Constrained    Coefficient    Offset
                         Variable         Variable
           1              Strain 1        Strain 2       1.00000      0.0000
           2              Strain 1        Strain 3       1.00000      0.0000

*  General input information                                                   *

  Species output for all configurations :

  Species    Type    Atomic    Atomic    Charge       Radii (Angs)     Library
                     Number     Mass       (e)     Cova   Ionic  VDW   Symbol
    Na       Core       11      22.99   1.000000   0.970  0.000  2.300
    O        Core        8      16.00   0.183000   0.730  0.000  1.360
    O        Shell       8       0.00  -2.183000   0.730  0.000  1.360
    Cl       Core       17      35.45   1.485000   0.990  0.000  1.650
    Cl       Shell      17       0.00  -2.485000   0.990  0.000  1.650
    Mg       Core       12      24.31   0.415000   1.100  0.000  0.000
    Mg       Shell      12       0.00   1.585000   1.100  0.000  0.000
    Ca       Core       20      40.08  -1.135000   0.990  0.000  0.000
    Ca       Shell      20       0.00   3.135000   0.990  0.000  0.000
    Sr       Core       38      87.62  -1.251000   1.120  0.000  0.000
    Sr       Shell      38       0.00   3.251000   1.120  0.000  0.000
    Ba       Core       56     137.33  -7.203000   1.340  0.000  0.000
    Ba       Shell      56       0.00   9.203000   1.340  0.000  0.000

  Lattice summation method               =    Ewald          (3-D)
                                         =    Parry          (2-D)
                                         =    Saunders et al (1-D)
  Accuracy factor for lattice sums       =   12.000

  Analytic derivatives to be used

  Time limit = Infinity

  Maximum range for interatomic potentials =    100000.000000 Angstroms

  General interatomic potentials :

Atom  Types   Potential      Parameter       Value         Units   Cutoffs(Ang)
  1     2                                                            Min /  Max
O    c O    s Spring (c-s)  Spring k 2       593.71600    eV*Ang^-2 0.000  0.800
                            Spring k 4       0.0000000    eV*Ang^-4
Cl   c Cl   s Spring (c-s)  Spring k 2       29.380000    eV*Ang^-2 0.000  0.800
                            Spring k 4       0.0000000    eV*Ang^-4
Mg   c Mg   s Spring (c-s)  Spring k 2       361.60000    eV*Ang^-2 0.000  0.800
                            Spring k 4       0.0000000    eV*Ang^-4
Ca   c Ca   s Spring (c-s)  Spring k 2       110.20000    eV*Ang^-2 0.000  0.800
                            Spring k 4       0.0000000    eV*Ang^-4
Sr   c Sr   s Spring (c-s)  Spring k 2       71.700000    eV*Ang^-2 0.000  0.800
                            Spring k 4       0.0000000    eV*Ang^-4
Ba   c Ba   s Spring (c-s)  Spring k 2       495.20000    eV*Ang^-2 0.000  0.800
                            Spring k 4       0.0000000    eV*Ang^-4
Na   c Na   c Buckingham    Buckingham A     1788.1900    eV        0.000 12.000
                            Buckingham rho  0.15900000    Ang
                            Buckingham C     0.0000000    eV*Ang^6
Na   c O    s Buckingham    Buckingham A     588.38000    eV        0.000 12.000
                            Buckingham rho  0.33800000    Ang
                            Buckingham C     0.0000000    eV*Ang^6
Na   c Cl   s Buckingham    Buckingham A     1170.4100    eV        0.000 12.000
                            Buckingham rho  0.31500000    Ang
                            Buckingham C     0.0000000    eV*Ang^6
O    s O    s Buckingham    Buckingham A     22764.300    eV        0.000 12.000
                            Buckingham rho  0.14900000    Ang
                            Buckingham C     13.190000    eV*Ang^6
O    s Cl   s Buckingham    Buckingham A     8286.9100    eV        0.000 12.000
                            Buckingham rho  0.25900000    Ang
                            Buckingham C     62.200000    eV*Ang^6
Cl   s Cl   s Buckingham    Buckingham A     1227.2000    eV        0.000 12.000
                            Buckingham rho  0.32100000    Ang
                            Buckingham C     14.530000    eV*Ang^6
O    s Mg   s Buckingham    Buckingham A     1428.5000    eV        0.000 12.000
                            Buckingham rho  0.29450000    Ang
                            Buckingham C     0.0000000    eV*Ang^6
Mg   s Cl   s Buckingham    Buckingham A     4914.5400    eV        0.000 12.000
                            Buckingham rho  0.25700000    Ang
                            Buckingham C     0.0000000    eV*Ang^6
O    s Ca   s Buckingham    Buckingham A     1090.4000    eV        0.000 12.000
                            Buckingham rho  0.34370000    Ang
                            Buckingham C     0.0000000    eV*Ang^6
Cl   s Ca   s Buckingham    Buckingham A     2302.0000    eV        0.000 12.000
                            Buckingham rho  0.34020000    Ang
                            Buckingham C     0.0000000    eV*Ang^6
O    s Sr   s Buckingham    Buckingham A     959.10000    eV        0.000 12.000
                            Buckingham rho  0.37210000    Ang
                            Buckingham C     0.0000000    eV*Ang^6
Cl   s Sr   s Buckingham    Buckingham A     2191.0900    eV        0.000 12.000
                            Buckingham rho  0.34570000    Ang
                            Buckingham C     0.0000000    eV*Ang^6
O    s Ba   s Buckingham    Buckingham A     905.70000    eV        0.000 12.000
                            Buckingham rho  0.39760000    Ang
                            Buckingham C     0.0000000    eV*Ang^6
Cl   s Ba   s Buckingham    Buckingham A     2704.5500    eV        0.000 12.000
                            Buckingham rho  0.35280000    Ang
                            Buckingham C     0.0000000    eV*Ang^6

*  Output for configuration   1                                                *

  Components of energy :

  Interatomic potentials     =           4.94315381 eV
  Monopole - monopole (real) =         -10.03624526 eV
  Monopole - monopole (recip)=         -29.53581274 eV
  Monopole - monopole (total)=         -39.57205800 eV
  Total lattice energy       =         -34.62890419 eV
  Total lattice energy       =           -3341.1599 kJ/(mole unit cells)

  Number of variables =        1

  Maximum number of calculations  =          1000
  Maximum Hessian update interval =            10
  Maximum step size               =   1.000000000
  Maximum parameter tolerance     =   0.000010000
  Maximum function  tolerance     =   0.000010000
  Maximum gradient  tolerance     =   0.001000000
  Maximum gradient  component     =   0.010000000

  Symmetry constrained optimisation

  Symmetry used for second derivatives

  Cell parameters to be optimised using strains

  Newton-Raphson optimiser to be used

  BFGS hessian update to be used

  Lower half triangular hessian to be used

  Start of bulk optimisation :

  ** Hessian calculated **

  **** Optimisation achieved ****

  Final energy =     -34.67767136 eV
  Final Gnorm  =       0.00000010

  Components of energy :

  Interatomic potentials     =           5.77546103 eV
  Monopole - monopole (real) =         -10.25970290 eV
  Monopole - monopole (recip)=         -30.19342950 eV
  Monopole - monopole (total)=         -40.45313239 eV
  Total lattice energy       =         -34.67767136 eV
  Total lattice energy       =           -3345.8652 kJ/(mole unit cells)

  Final asymmetric unit coordinates :

   No.  Atomic        x           y           z         Radius
        Label       (Frac)      (Frac)      (Frac)       (Angs)
     1  Cl    c     0.000000    0.000000    0.000000    0.000000
     2  O     c     0.500000    0.500000    0.500000    0.000000
     3  Na    c     0.500000    0.500000    0.000000    0.000000
     4  Cl    s     0.000000    0.000000    0.000000    0.000000
     5  O     s     0.500000    0.500000    0.500000    0.000000

  Final Cartesian lattice vectors (Angstroms) :

        4.405902    0.000000    0.000000
        0.000000    4.405902    0.000000
        0.000000    0.000000    4.405902

  Final cell parameters and derivatives :

       a            4.405902 Angstrom     dE/de1(xx)     0.000000 eV/strain
       b            4.405902 Angstrom     dE/de2(yy)     0.000000 eV/strain
       c            4.405902 Angstrom     dE/de3(zz)     0.000000 eV/strain
       alpha       90.000000 Degrees      dE/de4(yz)     0.000000 eV/strain
       beta        90.000000 Degrees      dE/de5(xz)     0.000000 eV/strain
       gamma       90.000000 Degrees      dE/de6(xy)     0.000000 eV/strain

  Primitive cell volume =            85.527266 Angs**3

  Density of cell =      2.338030 g/cm**3

  Non-primitive cell volume =            85.527266 Angs**3

  Final internal derivatives :

   No.  Atomic          a             b             c           Radius
        Label          (eV)          (eV)          (eV)        (eV/Angs)
      1 Cl    c       0.000000      0.000000      0.000000      0.000000
      2 O     c       0.000000      0.000000      0.000000      0.000000
      3 Na    c       0.000000      0.000000      0.000000      0.000000
      4 Cl    s       0.000000      0.000000      0.000000      0.000000
      5 O     s       0.000000      0.000000      0.000000      0.000000
  Maximum abs         0.000000      0.000000      0.000000      0.000000

  Comparison of initial and final structures :

[...]

  Comparison of initial and final region 1 :

  Parameter   Initial value   Final value   Difference    Units      Percent
      1 x          2.202951      2.202951     0.000000    Cartesian    0.00
      1 y          2.202951      2.202951     0.000000    Cartesian    0.00
      1 z          0.000000      0.000000     0.000000    Cartesian    0.00
      2 x          2.202951      2.202951     0.000000    Cartesian    0.00
      2 y          2.202951      2.202951     0.000000    Cartesian    0.00
      2 z         -2.202951     -2.093927     0.109024    Cartesian   -4.95
      3 x          4.405902      4.377531    -0.028371    Cartesian   -0.64
      3 y          4.405902      4.377531    -0.028371    Cartesian   -0.64
      3 z          0.000000      0.000000     0.000000    Cartesian    0.00
      4 x          4.405902      4.478418     0.072516    Cartesian    1.65
      4 y          2.202951      2.202951     0.000000    Cartesian    0.00
      4 z         -2.202951     -2.411144    -0.208193    Cartesian    9.45
      5 x          2.202951      2.202951     0.000000    Cartesian    0.00
      5 y          2.202951      2.202951     0.000000    Cartesian    0.00
      5 z          4.405902      4.426664     0.020761    Cartesian    0.47
      6 x          2.202951      2.202951     0.000000    Cartesian    0.00
      6 y          6.608853      6.580922    -0.027931    Cartesian   -0.42
      6 z          0.000000      0.000000     0.000000    Cartesian    0.00
      7 x          2.202951      2.202951     0.000000    Cartesian    0.00
      7 y          6.608853      6.629715     0.020862    Cartesian    0.32
      7 z         -2.202951     -2.209552    -0.006601    Cartesian    0.30
      8 x          4.405902      4.412653     0.006750    Cartesian    0.15
      8 y          6.608853      6.651949     0.043095    Cartesian    0.65
      8 z         -2.202951     -2.199711     0.003240    Cartesian   -0.15
      9 x          4.405902      4.350795    -0.055107    Cartesian   -1.25
      9 y          4.405902      4.350795    -0.055107    Cartesian   -1.25
      9 z          4.405902      4.360312    -0.045590    Cartesian   -1.03
     10 x          2.202951      2.202951     0.000000    Cartesian    0.00
     10 y          6.608853      6.745449     0.136595    Cartesian    2.07
     10 z          4.405902      4.420623     0.014720    Cartesian    0.33
     11 x          6.608853      6.644239     0.035385    Cartesian    0.54
     11 y          6.608853      6.644239     0.035385    Cartesian    0.54
     11 z          0.000000      0.000000     0.000000    Cartesian    0.00
     12 x          2.202951      2.202951     0.000000    Cartesian    0.00
     12 y          2.202951      2.202951     0.000000    Cartesian    0.00
     12 z          6.608853      6.599009    -0.009845    Cartesian   -0.15
     13 x          6.608853      6.609593     0.000739    Cartesian    0.01
     13 y          6.608853      6.609593     0.000739    Cartesian    0.01
     13 z         -2.202951     -2.201341     0.001610    Cartesian   -0.07
     14 x          4.405902      4.403429    -0.002473    Cartesian   -0.06
     14 y          8.811805      8.792564    -0.019241    Cartesian   -0.22
     14 z          0.000000      0.000000     0.000000    Cartesian    0.00
     15 x          4.405902      4.413790     0.007887    Cartesian    0.18
     15 y          2.202951      2.202951     0.000000    Cartesian    0.00
     15 z          6.608853      6.606434    -0.002420    Cartesian   -0.04
     16 x          8.811805      8.832841     0.021037    Cartesian    0.24
     16 y          2.202951      2.202951     0.000000    Cartesian    0.00
     16 z         -2.202951     -2.143020     0.059931    Cartesian   -2.72
     17 x          6.608853      6.622074     0.013220    Cartesian    0.20
     17 y          6.608853      6.622074     0.013220    Cartesian    0.20
     17 z          4.405902      4.406098     0.000195    Cartesian    0.00
     18 x          2.202951      2.202951     0.000000    Cartesian    0.00
     18 y          6.608853      6.617129     0.008276    Cartesian    0.13
     18 z          6.608853      6.609191     0.000338    Cartesian    0.01
     19 x          4.405902      4.402723    -0.003179    Cartesian   -0.07
     19 y          8.811805      8.796228    -0.015576    Cartesian   -0.18
     19 z          4.405902      4.396698    -0.009204    Cartesian   -0.21
     20 x          4.405902      4.405496    -0.000406    Cartesian   -0.01
     20 y          6.608853      6.622258     0.013405    Cartesian    0.20
     20 z          6.608853      6.633172     0.024319    Cartesian    0.37
     21 x          8.811805      8.819979     0.008175    Cartesian    0.09
     21 y          6.608853      6.625040     0.016186    Cartesian    0.24
     21 z         -2.202951     -2.212333    -0.009382    Cartesian    0.43
     22 x          2.202951      2.202951     0.000000    Cartesian    0.00
     22 y          2.202951      2.202951     0.000000    Cartesian    0.00
     22 z          8.811805      8.807491    -0.004314    Cartesian   -0.05
     23 x          2.202951      2.202951     0.000000    Cartesian    0.00
     23 y         11.014756     11.091892     0.077136    Cartesian    0.70
     23 z          0.000000      0.000000     0.000000    Cartesian    0.00
     24 x          6.608853      6.603677    -0.005177    Cartesian   -0.08
     24 y          6.608853      6.603677    -0.005177    Cartesian   -0.08
     24 z          6.608853      6.603980    -0.004873    Cartesian   -0.07
     25 x          2.202951      2.202951     0.000000    Cartesian    0.00
     25 y         11.014756     11.023526     0.008770    Cartesian    0.08
     25 z         -2.202951     -2.201268     0.001683    Cartesian   -0.08
     26 x          4.405902      4.405731    -0.000171    Cartesian   -0.00
     26 y          4.405902      4.405731    -0.000171    Cartesian   -0.00
     26 z          8.811805      8.789198    -0.022606    Cartesian   -0.26
     27 x          8.811805      8.800824    -0.010981    Cartesian   -0.12
     27 y          8.811805      8.800824    -0.010981    Cartesian   -0.12
     27 z          0.000000      0.000000     0.000000    Cartesian    0.00
     28 x          8.811805      8.821521     0.009716    Cartesian    0.11
     28 y          2.202951      2.202951     0.000000    Cartesian    0.00
     28 z          6.608853      6.662188     0.053335    Cartesian    0.81
     29 x          4.405902      4.407627     0.001725    Cartesian    0.04
     29 y         11.014756     11.028031     0.013276    Cartesian    0.12
     29 z         -2.202951     -2.204478    -0.001527    Cartesian    0.07
     30 x          2.202951      2.202951     0.000000    Cartesian    0.00
     30 y          6.608853      6.595500    -0.013353    Cartesian   -0.20
     30 z          8.811805      8.815876     0.004071    Cartesian    0.05
     31 x          2.202951      2.202951     0.000000    Cartesian    0.00
     31 y         11.014756     10.998122    -0.016634    Cartesian   -0.15
     31 z          4.405902      4.407030     0.001128    Cartesian    0.03
     32 x          6.608853      6.612297     0.003443    Cartesian    0.05
     32 y         11.014756     11.021877     0.007121    Cartesian    0.06
     32 z          0.000000      0.000000     0.000000    Cartesian    0.00
     33 x          6.608853      6.609948     0.001095    Cartesian    0.02
     33 y         11.014756     11.015092     0.000337    Cartesian    0.00
     33 z         -2.202951     -2.203525    -0.000574    Cartesian    0.03
     34 x          8.811805      8.800109    -0.011695    Cartesian   -0.13
     34 y          8.811805      8.800109    -0.011695    Cartesian   -0.13
     34 z          4.405902      4.399539    -0.006363    Cartesian   -0.14
     35 x          8.811805      8.812757     0.000952    Cartesian    0.01
     35 y          6.608853      6.608265    -0.000589    Cartesian   -0.01
     35 z          6.608853      6.608016    -0.000837    Cartesian   -0.01
     36 x          6.608853      6.614941     0.006087    Cartesian    0.09
     36 y         11.014756     11.027566     0.012810    Cartesian    0.12
     36 z          4.405902      4.406569     0.000667    Cartesian    0.02
     37 x          6.608853      6.616640     0.007787    Cartesian    0.12
     37 y          6.608853      6.616640     0.007787    Cartesian    0.12
     37 z          8.811805      8.814274     0.002469    Cartesian    0.03
     38 x          2.202951      2.202951     0.000000    Cartesian    0.00
     38 y          2.202951      2.202951     0.000000    Cartesian    0.00
     38 z         11.014756     11.011302    -0.003454    Cartesian   -0.03
     39 x          2.202951      2.202951     0.000000    Cartesian    0.00
     39 y         11.014756     11.011700    -0.003055    Cartesian   -0.03
     39 z          6.608853      6.608896     0.000042    Cartesian    0.00
     40 x          4.405902      4.400437    -0.005465    Cartesian   -0.12
     40 y          8.811805      8.800292    -0.011512    Cartesian   -0.13
     40 z          8.811805      8.797356    -0.014449    Cartesian   -0.16
     41 x          4.405902      4.405325    -0.000577    Cartesian   -0.01
     41 y         13.217707     13.195996    -0.021711    Cartesian   -0.16
     41 z          0.000000      0.000000     0.000000    Cartesian    0.00
     42 x          4.405902      4.404397    -0.001505    Cartesian   -0.03
     42 y          2.202951      2.202951     0.000000    Cartesian    0.00
     42 z         11.014756     11.028941     0.014186    Cartesian    0.13
     43 x          4.405902      4.406425     0.000522    Cartesian    0.01
     43 y         11.014756     11.030562     0.015806    Cartesian    0.14
     43 z          6.608853      6.611341     0.002487    Cartesian    0.04
     44 x         13.217707     13.226888     0.009181    Cartesian    0.07
     44 y          2.202951      2.202951     0.000000    Cartesian    0.00
     44 z         -2.202951     -2.231073    -0.028122    Cartesian    1.28
     45 x          8.811805      8.816114     0.004309    Cartesian    0.05
     45 y         11.014756     11.031513     0.016757    Cartesian    0.15
     45 z         -2.202951     -2.204596    -0.001644    Cartesian    0.07
     46 x          2.202951      2.202951     0.000000    Cartesian    0.00
     46 y          6.608853      6.603102    -0.005752    Cartesian   -0.09
     46 z         11.014756     11.008083    -0.006673    Cartesian   -0.06
     47 x          6.608853      6.605182    -0.003671    Cartesian   -0.06
     47 y         11.014756     11.009297    -0.005459    Cartesian   -0.05
     47 z          6.608853      6.603834    -0.005020    Cartesian   -0.08
     48 x          2.202951      2.202951     0.000000    Cartesian    0.00
     48 y          2.202951      2.202951     0.000000    Cartesian    0.00
     48 z          0.000000      0.000000     0.000000    Cartesian    0.00
     49 x          2.202951      2.202951     0.000000    Cartesian    0.00
     49 y          2.202951      2.202951     0.000000    Cartesian    0.00
     49 z         -2.202951     -2.093256     0.109695    Cartesian   -4.98
     50 x          4.405902      4.356005    -0.049898    Cartesian   -1.13
     50 y          4.405902      4.356005    -0.049898    Cartesian   -1.13
     50 z          0.000000      0.000000     0.000000    Cartesian    0.00
     51 x          2.202951      2.202951     0.000000    Cartesian    0.00
     51 y          6.608853      6.629682     0.020829    Cartesian    0.32
     51 z         -2.202951     -2.209574    -0.006623    Cartesian    0.30
     52 x          4.405902      4.338218    -0.067684    Cartesian   -1.54
     52 y          4.405902      4.338218    -0.067684    Cartesian   -1.54
     52 z          4.405902      4.347090    -0.058812    Cartesian   -1.33
     53 x          2.202951      2.202951     0.000000    Cartesian    0.00
     53 y          2.202951      2.202951     0.000000    Cartesian    0.00
     53 z          6.608853      6.598970    -0.009884    Cartesian   -0.15
     54 x          6.608853      6.609596     0.000743    Cartesian    0.01
     54 y          6.608853      6.609596     0.000743    Cartesian    0.01
     54 z         -2.202951     -2.201341     0.001611    Cartesian   -0.07
     55 x          4.405902      4.401769    -0.004133    Cartesian   -0.09
     55 y          8.811805      8.788135    -0.023669    Cartesian   -0.27
     55 z          0.000000      0.000000     0.000000    Cartesian    0.00
     56 x          2.202951      2.202951     0.000000    Cartesian    0.00
     56 y          6.608853      6.617149     0.008296    Cartesian    0.13
     56 z          6.608853      6.609192     0.000339    Cartesian    0.01
     57 x          4.405902      4.400714    -0.005188    Cartesian   -0.12
     57 y          8.811805      8.791502    -0.020302    Cartesian   -0.23
     57 z          4.405902      4.395052    -0.010850    Cartesian   -0.25
     58 x          6.608853      6.603674    -0.005180    Cartesian   -0.08
     58 y          6.608853      6.603674    -0.005180    Cartesian   -0.08
     58 z          6.608853      6.603978    -0.004875    Cartesian   -0.07
     59 x          2.202951      2.202951     0.000000    Cartesian    0.00
     59 y         11.014756     11.023521     0.008765    Cartesian    0.08
     59 z         -2.202951     -2.201259     0.001692    Cartesian   -0.08
     60 x          4.405902      4.405984     0.000082    Cartesian    0.00
     60 y          4.405902      4.405984     0.000082    Cartesian    0.00
     60 z          8.811805      8.786245    -0.025559    Cartesian   -0.29
     61 x          8.811805      8.797731    -0.014074    Cartesian   -0.16
     61 y          8.811805      8.797731    -0.014074    Cartesian   -0.16
     61 z          0.000000      0.000000     0.000000    Cartesian    0.00
     62 x          6.608853      6.609948     0.001094    Cartesian    0.02
     62 y         11.014756     11.015092     0.000336    Cartesian    0.00
     62 z         -2.202951     -2.203527    -0.000576    Cartesian    0.03
     63 x          8.811805      8.797813    -0.013992    Cartesian   -0.16
     63 y          8.811805      8.797813    -0.013992    Cartesian   -0.16
     63 z          4.405902      4.398477    -0.007425    Cartesian   -0.17
     64 x          2.202951      2.202951     0.000000    Cartesian    0.00
     64 y          2.202951      2.202951     0.000000    Cartesian    0.00
     64 z         11.014756     11.011312    -0.003444    Cartesian   -0.03
     65 x          2.202951      2.202951     0.000000    Cartesian    0.00
     65 y         11.014756     11.011687    -0.003069    Cartesian   -0.03
     65 z          6.608853      6.608905     0.000052    Cartesian    0.00
     66 x          4.405902      4.399029    -0.006873    Cartesian   -0.16
     66 y          8.811805      8.798415    -0.013390    Cartesian   -0.15
     66 z          8.811805      8.794530    -0.017274    Cartesian   -0.20
     67 x          4.405902      4.404743    -0.001160    Cartesian   -0.03
     67 y         13.217707     13.192022    -0.025685    Cartesian   -0.19
     67 z          0.000000      0.000000     0.000000    Cartesian    0.00
     68 x          2.202951      2.202951     0.000000    Cartesian    0.00
     68 y          6.608853      6.603092    -0.005762    Cartesian   -0.09
     68 z         11.014756     11.008070    -0.006686    Cartesian   -0.06
     69 x          6.608853      6.605177    -0.003677    Cartesian   -0.06
     69 y         11.014756     11.009292    -0.005463    Cartesian   -0.05
     69 z          6.608853      6.603825    -0.005028    Cartesian   -0.08

  Time to end of optimisation  =        4.0478 seconds

  Timing analysis for GULP :

  Task / Subroutine                                          Time (Seconds)
  Calculation of reciprocal space energy and derivatives          0.0003
  Calculation of reciprocal space energy using symmetry           0.0006
  Calculation of real space energy and derivatives                0.0020
  Calculation of real space energy using symmetry                 0.0065
  Calculation for region 1 energy and derivatives (2-b)           2.4995
  Calculation for region 2a energy                                1.4212
  Calculation and manipulation of Hessian matrix                  0.0695
  Calculation of matrix inversion                                 0.0024
  Symmetry generation of equivalent positions                     0.0023

  Dump file written as Na3OCl.grs

  Job Finished at 15:47.07  4th February   2021