  Job Started  at 17:56.18  1st February   2021

  Number of CPUs =     1

  Total number of configurations input =      1

*  Input for Configuration =   1                                               *

  Formula = O8Cl8Na24

  Number of irreducible atoms/shells =      56

  Total number atoms/shells =      56

  Dimensionality = 3               :  Bulk

  Supercell dimensions :  x =   2  y =   2  z =   2

  Cartesian lattice vectors (Angstroms) :

        9.008000    0.000000    0.000000
        0.000000    9.008000    0.000000
        0.000000    0.000000    9.008000

  Cell parameters (Angstroms/Degrees):

  a =       9.0080    alpha =  90.0000
  b =       9.0080    beta  =  90.0000
  c =       9.0080    gamma =  90.0000

  Initial cell volume =         730.945729 Angs**3

  Temperature of configuration =   0.00     K

  Pressure of configuration =         0.000 GPa

  Fractional coordinates of asymmetric unit :

   No.  Atomic       x           y          z         Charge      Occupancy
        Label      (Frac)      (Frac)     (Frac)        (e)         (Frac)
      1 O     c    0.000000    0.000000    0.000000     0.18300    1.000000
      2 O     c    0.000000 *  0.000000 *  0.500000 *   0.18300    1.000000
      3 O     c    0.000000 *  0.500000 *  0.000000 *   0.18300    1.000000
      4 O     c    0.000000 *  0.500000 *  0.500000 *   0.18300    1.000000
      5 O     c    0.500000 *  0.000000 *  0.000000 *   0.18300    1.000000
      6 O     c    0.500000 *  0.000000 *  0.500000 *   0.18300    1.000000
      7 O     c    0.500000 *  0.500000 *  0.000000 *   0.18300    1.000000
      8 O     c    0.500000 *  0.500000 *  0.500000 *   0.18300    1.000000
      9 Cl    c    0.250000 *  0.250000 *  0.250000 *   1.48500    1.000000
     10 Cl    c    0.250000 *  0.250000 *  0.750000 *   1.48500    1.000000
     11 Cl    c    0.250000 *  0.750000 *  0.250000 *   1.48500    1.000000
     12 Cl    c    0.250000 *  0.750000 *  0.750000 *   1.48500    1.000000
     13 Cl    c    0.750000 *  0.250000 *  0.250000 *   1.48500    1.000000
     14 Cl    c    0.750000 *  0.250000 *  0.750000 *   1.48500    1.000000
     15 Cl    c    0.750000 *  0.750000 *  0.250000 *   1.48500    1.000000
     16 Cl    c    0.750000 *  0.750000 *  0.750000 *   1.48500    1.000000
     17 Na    c    0.250000 *  0.000000 *  0.000000 *   1.00000    1.000000
     18 Na    c    0.250000 *  0.000000 *  0.500000 *   1.00000    1.000000
     19 Na    c    0.250000 *  0.500000 *  0.000000 *   1.00000    1.000000
     20 Na    c    0.250000 *  0.500000 *  0.500000 *   1.00000    1.000000
     21 Na    c    0.750000 *  0.000000 *  0.000000 *   1.00000    1.000000
     22 Na    c    0.750000 *  0.000000 *  0.500000 *   1.00000    1.000000
     23 Na    c    0.750000 *  0.500000 *  0.000000 *   1.00000    1.000000
     24 Na    c    0.750000 *  0.500000 *  0.500000 *   1.00000    1.000000
     25 Na    c    0.000000 *  0.250000 *  0.000000 *   1.00000    1.000000
     26 Na    c    0.000000 *  0.250000 *  0.500000 *   1.00000    1.000000
     27 Na    c    0.000000 *  0.750000 *  0.000000 *   1.00000    1.000000
     28 Na    c    0.000000 *  0.750000 *  0.500000 *   1.00000    1.000000
     29 Na    c    0.500000 *  0.250000 *  0.000000 *   1.00000    1.000000
     30 Na    c    0.500000 *  0.250000 *  0.500000 *   1.00000    1.000000
     31 Na    c    0.500000 *  0.750000 *  0.000000 *   1.00000    1.000000
     32 Na    c    0.500000 *  0.750000 *  0.500000 *   1.00000    1.000000
     33 Na    c    0.000000 *  0.000000 *  0.250000 *   1.00000    1.000000
     34 Na    c    0.000000 *  0.000000 *  0.750000 *   1.00000    1.000000
     35 Na    c    0.000000 *  0.500000 *  0.250000 *   1.00000    1.000000
     36 Na    c    0.000000 *  0.500000 *  0.750000 *   1.00000    1.000000
     37 Na    c    0.500000 *  0.000000 *  0.250000 *   1.00000    1.000000
     38 Na    c    0.500000 *  0.000000 *  0.750000 *   1.00000    1.000000
     39 Na    c    0.500000 *  0.500000 *  0.250000 *   1.00000    1.000000
     40 Na    c    0.500000 *  0.500000 *  0.750000 *   1.00000    1.000000
     41 O     s    0.000000 *  0.000000 *  0.000000 *  -2.18300    1.000000
     42 O     s    0.000000 *  0.000000 *  0.500000 *  -2.18300    1.000000
     43 O     s    0.000000 *  0.500000 *  0.000000 *  -2.18300    1.000000
     44 O     s    0.000000 *  0.500000 *  0.500000 *  -2.18300    1.000000
     45 O     s    0.500000 *  0.000000 *  0.000000 *  -2.18300    1.000000
     46 O     s    0.500000 *  0.000000 *  0.500000 *  -2.18300    1.000000
     47 O     s    0.500000 *  0.500000 *  0.000000 *  -2.18300    1.000000
     48 O     s    0.500000 *  0.500000 *  0.500000 *  -2.18300    1.000000
     49 Cl    s    0.250000 *  0.250000 *  0.250000 *  -2.48500    1.000000
     50 Cl    s    0.250000 *  0.250000 *  0.750000 *  -2.48500    1.000000
     51 Cl    s    0.250000 *  0.750000 *  0.250000 *  -2.48500    1.000000
     52 Cl    s    0.250000 *  0.750000 *  0.750000 *  -2.48500    1.000000
     53 Cl    s    0.750000 *  0.250000 *  0.250000 *  -2.48500    1.000000
     54 Cl    s    0.750000 *  0.250000 *  0.750000 *  -2.48500    1.000000
     55 Cl    s    0.750000 *  0.750000 *  0.250000 *  -2.48500    1.000000
     56 Cl    s    0.750000 *  0.750000 *  0.750000 *  -2.48500    1.000000

*  General input information                                                   *

  Species output for all configurations :

  Species    Type    Atomic    Atomic    Charge       Radii (Angs)     Library
                     Number     Mass       (e)     Cova   Ionic  VDW   Symbol
    Na       Core       11      22.99   1.000000   0.970  0.000  2.300
    O        Core        8      16.00   0.183000   0.730  0.000  1.360
    O        Shell       8       0.00  -2.183000   0.730  0.000  1.360
    Cl       Core       17      35.45   1.485000   0.990  0.000  1.650
    Cl       Shell      17       0.00  -2.485000   0.990  0.000  1.650
    Mg       Core       12      24.31   0.415000   1.100  0.000  0.000
    Mg       Shell      12       0.00   1.585000   1.100  0.000  0.000
    Ca       Core       20      40.08  -1.135000   0.990  0.000  0.000
    Ca       Shell      20       0.00   3.135000   0.990  0.000  0.000
    Sr       Core       38      87.62  -1.251000   1.120  0.000  0.000
    Sr       Shell      38       0.00   3.251000   1.120  0.000  0.000
    Ba       Core       56     137.33  -7.203000   1.340  0.000  0.000
    Ba       Shell      56       0.00   9.203000   1.340  0.000  0.000

  Lattice summation method               =    Ewald          (3-D)
                                         =    Parry          (2-D)
                                         =    Saunders et al (1-D)
  Accuracy factor for lattice sums       =   12.000

  Analytic derivatives to be used

  Time limit = Infinity

  Maximum range for interatomic potentials =    100000.000000 Angstroms

  General interatomic potentials :

Atom  Types   Potential      Parameter       Value         Units   Cutoffs(Ang)
  1     2                                                            Min /  Max
O    c O    s Spring (c-s)  Spring k 2       593.71600    eV*Ang^-2 0.000  0.800
                            Spring k 4       0.0000000    eV*Ang^-4
Cl   c Cl   s Spring (c-s)  Spring k 2       29.380000    eV*Ang^-2 0.000  0.800
                            Spring k 4       0.0000000    eV*Ang^-4
Mg   c Mg   s Spring (c-s)  Spring k 2       361.60000    eV*Ang^-2 0.000  0.800
                            Spring k 4       0.0000000    eV*Ang^-4
Ca   c Ca   s Spring (c-s)  Spring k 2       110.20000    eV*Ang^-2 0.000  0.800
                            Spring k 4       0.0000000    eV*Ang^-4
Sr   c Sr   s Spring (c-s)  Spring k 2       71.700000    eV*Ang^-2 0.000  0.800
                            Spring k 4       0.0000000    eV*Ang^-4
Ba   c Ba   s Spring (c-s)  Spring k 2       495.20000    eV*Ang^-2 0.000  0.800
                            Spring k 4       0.0000000    eV*Ang^-4
Na   c Na   c Buckingham    Buckingham A     1788.1900    eV        0.000 12.000
                            Buckingham rho  0.15900000    Ang
                            Buckingham C     0.0000000    eV*Ang^6
Na   c O    s Buckingham    Buckingham A     588.38000    eV        0.000 12.000
                            Buckingham rho  0.33800000    Ang
                            Buckingham C     0.0000000    eV*Ang^6
Na   c Cl   s Buckingham    Buckingham A     1170.4100    eV        0.000 12.000
                            Buckingham rho  0.31500000    Ang
                            Buckingham C     0.0000000    eV*Ang^6
O    s O    s Buckingham    Buckingham A     22764.300    eV        0.000 12.000
                            Buckingham rho  0.14900000    Ang
                            Buckingham C     13.190000    eV*Ang^6
O    s Cl   s Buckingham    Buckingham A     8286.9100    eV        0.000 12.000
                            Buckingham rho  0.25900000    Ang
                            Buckingham C     62.200000    eV*Ang^6
Cl   s Cl   s Buckingham    Buckingham A     1227.2000    eV        0.000 12.000
                            Buckingham rho  0.32100000    Ang
                            Buckingham C     14.530000    eV*Ang^6
O    s Mg   s Buckingham    Buckingham A     1428.5000    eV        0.000 12.000
                            Buckingham rho  0.29450000    Ang
                            Buckingham C     0.0000000    eV*Ang^6
Mg   s Cl   s Buckingham    Buckingham A     4914.5400    eV        0.000 12.000
                            Buckingham rho  0.25700000    Ang
                            Buckingham C     0.0000000    eV*Ang^6
O    s Ca   s Buckingham    Buckingham A     1090.4000    eV        0.000 12.000
                            Buckingham rho  0.34370000    Ang
                            Buckingham C     0.0000000    eV*Ang^6
Cl   s Ca   s Buckingham    Buckingham A     2302.0000    eV        0.000 12.000
                            Buckingham rho  0.34020000    Ang
                            Buckingham C     0.0000000    eV*Ang^6
O    s Sr   s Buckingham    Buckingham A     959.10000    eV        0.000 12.000
                            Buckingham rho  0.37210000    Ang
                            Buckingham C     0.0000000    eV*Ang^6
Cl   s Sr   s Buckingham    Buckingham A     2191.0900    eV        0.000 12.000
                            Buckingham rho  0.34570000    Ang
                            Buckingham C     0.0000000    eV*Ang^6
O    s Ba   s Buckingham    Buckingham A     905.70000    eV        0.000 12.000
                            Buckingham rho  0.39760000    Ang
                            Buckingham C     0.0000000    eV*Ang^6
Cl   s Ba   s Buckingham    Buckingham A     2704.5500    eV        0.000 12.000
                            Buckingham rho  0.35280000    Ang
                            Buckingham C     0.0000000    eV*Ang^6

*  Output for configuration   1                                                *

  Components of energy :

  Interatomic potentials     =          39.54523045 eV
  Monopole - monopole (real) =        -173.49412932 eV
[...]
    118 z          4.405902      4.404697    -0.001205    Cartesian   -0.03
    119 x          4.405902      4.405120    -0.000782    Cartesian   -0.02
    119 y          8.811805      8.812122     0.000318    Cartesian    0.00
    119 z         13.217707     13.218137     0.000430    Cartesian    0.00
    120 x          8.811805      8.810549    -0.001256    Cartesian   -0.01
    120 y          8.811805      8.808777    -0.003028    Cartesian   -0.03
    120 z         -4.405902     -4.405402     0.000500    Cartesian   -0.01
    121 x          6.608853      6.609561     0.000707    Cartesian    0.01
    121 y         -4.405902     -4.408551    -0.002649    Cartesian    0.06
    121 z         -4.405902     -4.408551    -0.002649    Cartesian    0.06
    122 x         11.014756     11.014864     0.000109    Cartesian    0.00
    122 y          4.405902      4.411112     0.005209    Cartesian    0.12
    122 z         -4.405902     -4.394936     0.010967    Cartesian   -0.25
    123 x         11.014756     11.021808     0.007052    Cartesian    0.06
    123 y          2.202951      2.199082    -0.003869    Cartesian   -0.18
    123 z         11.014756     11.012773    -0.001983    Cartesian   -0.02
    124 x         11.014756     11.008658    -0.006098    Cartesian   -0.06
    124 y         -2.202951     -2.210892    -0.007941    Cartesian    0.36
    124 z         -2.202951     -2.210892    -0.007941    Cartesian    0.36
    125 x          6.608853      6.611690     0.002836    Cartesian    0.04
    125 y         11.014756     11.019541     0.004785    Cartesian    0.04
    125 z         11.014756     11.019541     0.004785    Cartesian    0.04
    126 x         -6.608853     -6.606784     0.002070    Cartesian   -0.03
    126 y          8.811805      8.809511    -0.002293    Cartesian   -0.03
    126 z          8.811805      8.809511    -0.002293    Cartesian   -0.03
    127 x         13.217707     13.212832    -0.004875    Cartesian   -0.04
    127 y          6.608853      6.609926     0.001073    Cartesian    0.02
    127 z          0.000000     -0.000844    -0.000844    Cartesian *******
    128 x          8.811805      8.817488     0.005683    Cartesian    0.06
    128 y          2.202951      2.205327     0.002376    Cartesian    0.11
    128 z         13.217707     13.207757    -0.009950    Cartesian   -0.08
    129 x          8.811805      8.814992     0.003187    Cartesian    0.04
    129 y         -6.608853     -6.606967     0.001887    Cartesian   -0.03
    129 z          4.405902      4.410072     0.004170    Cartesian    0.09
    130 x         -4.405902     -4.401211     0.004692    Cartesian   -0.11
    130 y          4.405902      4.405326    -0.000576    Cartesian   -0.01
    130 z         13.217707     13.218483     0.000776    Cartesian    0.01
    131 x         -8.811805     -8.812089    -0.000284    Cartesian    0.00
    131 y          0.000000     -0.001345    -0.001345    Cartesian *******
    131 z         -0.000000     -0.001345    -0.001345    Cartesian *******
    132 x          0.000000     -0.177634    -0.177634    Cartesian *******
    132 y          4.405902      4.413031     0.007128    Cartesian    0.16
    132 z          4.405902      4.413031     0.007128    Cartesian    0.16
    133 x          2.202951      2.202951     0.000000    Cartesian    0.00
    133 y          2.202951      2.065405    -0.137546    Cartesian   -6.24
    133 z          6.608853      6.682847     0.073993    Cartesian    1.12
    134 x         -0.000000      0.025385     0.025385    Cartesian *******
    134 y          4.405902      4.385603    -0.020300    Cartesian   -0.46
    134 z         -0.000000      0.053651     0.053651    Cartesian *******
    135 x          6.608853      6.627954     0.019100    Cartesian    0.29
    135 y          2.202951      2.113005    -0.089946    Cartesian   -4.08
    135 z          2.202951      2.113005    -0.089946    Cartesian   -4.08
    136 x          2.202951      2.202951     0.000000    Cartesian    0.00
    136 y          6.608853      6.698065     0.089212    Cartesian    1.35
    136 z          6.608853      6.698065     0.089212    Cartesian    1.35
    137 x          0.000000      0.022999     0.022999    Cartesian    0.00
    137 y          0.000000      0.022859     0.022859    Cartesian    0.00
    137 z          0.000000      0.022859     0.022859    Cartesian    0.00
    138 x          6.608853      6.655318     0.046465    Cartesian    0.70
    138 y          2.202951      2.104085    -0.098866    Cartesian   -4.49
    138 z          6.608853      6.632869     0.024015    Cartesian    0.36
    139 x          2.202951      2.202951     0.000000    Cartesian    0.00
    139 y          2.202951      2.194212    -0.008739    Cartesian   -0.40
    139 z         -2.202951     -2.159617     0.043334    Cartesian   -1.97
    140 x          4.405902      4.384304    -0.021598    Cartesian   -0.49
    140 y          4.405902      4.404525    -0.001377    Cartesian   -0.03
    140 z          8.811805      8.774441    -0.037363    Cartesian   -0.42
    141 x          6.608853      6.703580     0.094726    Cartesian    1.43
    141 y          6.608853      6.669786     0.060932    Cartesian    0.92
    141 z          6.608853      6.669786     0.060932    Cartesian    0.92
    142 x          2.202951      2.202951     0.000000    Cartesian    0.00
    142 y          6.608853      6.558702    -0.050152    Cartesian   -0.76
    142 z         -2.202951     -2.193106     0.009846    Cartesian   -0.45
    143 x         -4.405902     -4.455714    -0.049811    Cartesian    1.13
    143 y          4.405902      4.414626     0.008724    Cartesian    0.20
    143 z          4.405902      4.414626     0.008724    Cartesian    0.20
    144 x          4.405902      4.412965     0.007063    Cartesian    0.16
    144 y          0.000000     -0.006277    -0.006277    Cartesian *******
    144 z          8.811805      8.817489     0.005685    Cartesian    0.06
    145 x          6.608853      6.567077    -0.041776    Cartesian   -0.63
    145 y          2.202951      2.190892    -0.012059    Cartesian   -0.55
    145 z         -2.202951     -2.184971     0.017980    Cartesian   -0.82
    146 x          8.811805      8.807958    -0.003846    Cartesian   -0.04
    146 y          4.405902      4.404050    -0.001852    Cartesian   -0.04
    146 z         -0.000000      0.008366     0.008366    Cartesian *******
    147 x          2.202951      2.202951     0.000000    Cartesian    0.00
    147 y          2.202951      2.196936    -0.006015    Cartesian   -0.27
    147 z         11.014756     11.020566     0.005810    Cartesian    0.05
    148 x          6.608853      6.579315    -0.029538    Cartesian   -0.45
    148 y         -2.202951     -2.197580     0.005371    Cartesian   -0.24
    148 z          6.608853      6.572614    -0.036239    Cartesian   -0.55
    149 x          2.202951      2.202951     0.000000    Cartesian    0.00
    149 y         -2.202951     -2.175835     0.027116    Cartesian   -1.23
    149 z         -2.202951     -2.175835     0.027116    Cartesian   -1.23
    150 x          0.000000      0.001279     0.001279    Cartesian *******
    150 y          4.405902      4.404432    -0.001470    Cartesian   -0.03
    150 z         -4.405902     -4.395738     0.010164    Cartesian   -0.23
    151 x         -4.405902     -4.412905    -0.007002    Cartesian    0.16
    151 y          0.000000     -0.008672    -0.008672    Cartesian *******
    151 z         -0.000000     -0.008672    -0.008672    Cartesian *******
    152 x          0.000000     -0.006743    -0.006743    Cartesian *******
    152 y          8.811805      8.814296     0.002492    Cartesian    0.03
    152 z          8.811805      8.814296     0.002492    Cartesian    0.03
    153 x          2.202951      2.202951     0.000000    Cartesian    0.00
    153 y          6.608853      6.598500    -0.010353    Cartesian   -0.16
    153 z         11.014756     11.026021     0.011265    Cartesian    0.10
    154 x         -4.405902     -4.402806     0.003096    Cartesian   -0.07
    154 y          4.405902      4.401371    -0.004531    Cartesian   -0.10
    154 z          8.811805      8.799044    -0.012761    Cartesian   -0.14
    155 x          0.000000      0.001255     0.001255    Cartesian *******
    155 y          0.000000      0.000862     0.000862    Cartesian *******
    155 z         -4.405902     -4.403697     0.002205    Cartesian   -0.05
    156 x         -2.202951     -2.202989    -0.000037    Cartesian    0.00
    156 y          2.202951      2.191377    -0.011574    Cartesian   -0.53
    156 z         11.014756     11.019496     0.004741    Cartesian    0.04
    157 x         11.014756     11.021359     0.006603    Cartesian    0.06
    157 y          2.202951      2.193464    -0.009488    Cartesian   -0.43
    157 z          2.202951      2.193464    -0.009488    Cartesian   -0.43
    158 x          6.608853      6.578808    -0.030045    Cartesian   -0.45
    158 y         -2.202951     -2.187256     0.015695    Cartesian   -0.71
    158 z         -2.202951     -2.187256     0.015695    Cartesian   -0.71
    159 x         -4.405902     -4.412728    -0.006826    Cartesian    0.15
    159 y          0.000000     -0.006986    -0.006986    Cartesian *******
    159 z          8.811805      8.820487     0.008682    Cartesian    0.10
    160 x          6.608853      6.605854    -0.002999    Cartesian   -0.05
    160 y          6.608853      6.600969    -0.007884    Cartesian   -0.12
    160 z         11.014756     11.023043     0.008287    Cartesian    0.08
    161 x         11.014756     11.027383     0.012627    Cartesian    0.11
    161 y          6.608853      6.600091    -0.008763    Cartesian   -0.13
    161 z          2.202951      2.194950    -0.008002    Cartesian   -0.36
    162 x          2.202951      2.202951     0.000000    Cartesian    0.00
    162 y         -2.202951     -2.220021    -0.017070    Cartesian    0.77
    162 z         11.014756     11.007347    -0.007408    Cartesian   -0.07
    163 x          0.000000      0.001647     0.001647    Cartesian *******
    163 y          8.811805      8.810993    -0.000811    Cartesian   -0.01
    163 z         -4.405902     -4.404967     0.000936    Cartesian   -0.02
    164 x         11.014756     11.035481     0.020725    Cartesian    0.19
    164 y          6.608853      6.600995    -0.007858    Cartesian   -0.12
    164 z          6.608853      6.600995    -0.007858    Cartesian   -0.12
    165 x          2.202951      2.202951     0.000000    Cartesian    0.00
    165 y          2.202951      2.196592    -0.006359    Cartesian   -0.29
    165 z         -6.608853     -6.601953     0.006900    Cartesian   -0.10
    166 x          4.405902      4.415392     0.009489    Cartesian    0.22
    166 y          4.405902      4.404807    -0.001096    Cartesian   -0.02
    166 z         13.217707     13.208024    -0.009683    Cartesian   -0.07
    167 x          8.811805      8.808757    -0.003048    Cartesian   -0.03
    167 y          4.405902      4.403621    -0.002281    Cartesian   -0.05
    167 z         -4.405902     -4.401227     0.004675    Cartesian   -0.11
    168 x         -4.405902     -4.410659    -0.004757    Cartesian    0.11
    168 y          8.811805      8.820219     0.008414    Cartesian    0.10
    168 z          8.811805      8.820219     0.008414    Cartesian    0.10
    169 x         11.014756     11.007923    -0.006833    Cartesian   -0.06
    169 y          2.202951      2.193420    -0.009531    Cartesian   -0.43
    169 z         -2.202951     -2.212575    -0.009624    Cartesian    0.44
    170 x          6.608853      6.612258     0.003405    Cartesian    0.05
    170 y         -2.202951     -2.219765    -0.016814    Cartesian    0.76
    170 z         11.014756     11.009218    -0.005538    Cartesian   -0.05
    171 x          2.202951      2.202951     0.000000    Cartesian    0.00
    171 y          6.608853      6.600479    -0.008375    Cartesian   -0.13
    171 z         -6.608853     -6.607528     0.001325    Cartesian   -0.02
    172 x          4.405902      4.404502    -0.001400    Cartesian   -0.03
    172 y          0.000000     -0.000107    -0.000107    Cartesian *******
    172 z         13.217707     13.217900     0.000193    Cartesian    0.00
    173 x          8.811805      8.810529    -0.001276    Cartesian   -0.01
    173 y          0.000000      0.000150     0.000150    Cartesian *******
    173 z         -4.405902     -4.405842     0.000060    Cartesian   -0.00
    174 x         11.014756     11.010236    -0.004520    Cartesian   -0.04
    174 y          6.608853      6.602576    -0.006277    Cartesian   -0.09
    174 z         -2.202951     -2.213113    -0.010162    Cartesian    0.46
    175 x          6.608853      6.604832    -0.004021    Cartesian   -0.06
    175 y          2.202951      2.196711    -0.006240    Cartesian   -0.28
    175 z         -6.608853     -6.604115     0.004739    Cartesian   -0.07
    176 x          2.202951      2.202951     0.000000    Cartesian    0.00
    176 y         11.014756     11.017654     0.002898    Cartesian    0.03
    176 z         11.014756     11.017654     0.002898    Cartesian    0.03
    177 x         -8.811805     -8.823035    -0.011231    Cartesian    0.13
    177 y          4.405902      4.398683    -0.007220    Cartesian   -0.16
    177 z          4.405902      4.398683    -0.007220    Cartesian   -0.16
    178 x          0.000000      0.000361     0.000361    Cartesian *******
    178 y         -4.405902     -4.404445     0.001458    Cartesian   -0.03
    178 z         -4.405902     -4.404445     0.001458    Cartesian   -0.03
    179 x          6.608853      6.606021    -0.002832    Cartesian   -0.04
    179 y          6.608853      6.601477    -0.007377    Cartesian   -0.11
    179 z         -6.608853     -6.607502     0.001352    Cartesian   -0.02
    180 x          2.202951      2.202951     0.000000    Cartesian    0.00
    180 y         -2.202951     -2.206348    -0.003396    Cartesian    0.15
    180 z         -6.608853     -6.601877     0.006976    Cartesian   -0.11
    181 x         -8.811805     -8.812889    -0.001085    Cartesian    0.01
    181 y          0.000000     -0.001987    -0.001987    Cartesian *******
    181 z          4.405902      4.404695    -0.001207    Cartesian   -0.03
    182 x          4.405902      4.405117    -0.000785    Cartesian   -0.02
    182 y          8.811805      8.812124     0.000319    Cartesian    0.00
    182 z         13.217707     13.218138     0.000431    Cartesian    0.00
    183 x          8.811805      8.810550    -0.001254    Cartesian   -0.01
    183 y          8.811805      8.808775    -0.003029    Cartesian   -0.03
    183 z         -4.405902     -4.405401     0.000501    Cartesian   -0.01
    184 x         11.014756     11.023747     0.008991    Cartesian    0.08
    184 y          2.202951      2.197982    -0.004969    Cartesian   -0.23
    184 z         11.014756     11.011732    -0.003024    Cartesian   -0.03
    185 x         11.014756     11.007391    -0.007365    Cartesian   -0.07
    185 y         -2.202951     -2.211729    -0.008778    Cartesian    0.40
    185 z         -2.202951     -2.211729    -0.008778    Cartesian    0.40
    186 x         -2.202951     -2.206224    -0.003273    Cartesian    0.15
    186 y         11.014756     11.019994     0.005238    Cartesian    0.05
    186 z         11.014756     11.019994     0.005238    Cartesian    0.05
    187 x         -4.405902     -4.401190     0.004713    Cartesian   -0.11
    187 y          4.405902      4.405325    -0.000577    Cartesian   -0.01
    187 z         13.217707     13.218503     0.000796    Cartesian    0.01
    188 x         -8.811805     -8.812086    -0.000281    Cartesian    0.00
    188 y          0.000000     -0.001346    -0.001346    Cartesian *******
    188 z         -0.000000     -0.001346    -0.001346    Cartesian *******

  Time to end of optimisation  =        8.8043 seconds

  Timing analysis for GULP :

  Task / Subroutine                                          Time (Seconds)
  Calculation of reciprocal space energy and derivatives          0.0144
  Calculation of real space energy and derivatives                0.1389
  Calculation for region 1 energy and derivatives (2-b)           5.0692
  Calculation for region 2a energy                                2.5274
  Calculation and manipulation of Hessian matrix                  0.9271
  Calculation of matrix inversion                                 0.0741
  Symmetry generation of equivalent positions                     0.0019

  Dump file written as Na3OCl.grs

  Job Finished at 17:56.27  1st February   2021