  Job Started  at 16:22.29  5th July       2021

  Number of CPUs =     1

  Total number of configurations input =      1

*  Input for Configuration =   1                                               *

  Formula = ClONa3

  Number of irreducible atoms/shells =       5

  Total number atoms/shells =       7

  Dimensionality = 3               :  Bulk

  Symmetry :

  Crystal family                   :  Cubic
  Crystal class  (Groth - 1921)    :  Cubic Hexakisoctahedral

  Space group (centrosymmetric)    :  P M 3 M

  Patterson group                  :  P m -3 m

  Cartesian lattice vectors (Angstroms) :

        4.504000    0.000000    0.000000
        0.000000    4.504000    0.000000
        0.000000    0.000000    4.504000

  Cell parameters (Angstroms/Degrees):

  a =       4.5040    alpha =  90.0000
  b =       4.5040    beta  =  90.0000
  c =       4.5040    gamma =  90.0000

  Initial cell volume =          91.368216 Angs**3

  Temperature of configuration =   0.00     K

  Pressure of configuration =         0.000 GPa

  Fractional coordinates of asymmetric unit :

   No.  Atomic       x           y          z         Charge      Occupancy
        Label      (Frac)      (Frac)     (Frac)        (e)         (Frac)
      1 Cl    c    0.000000    0.000000    0.000000     0.61500    1.000000
      2 O     c    0.500000    0.500000    0.500000     0.48900    1.000000
      3 Na    c    0.500000    0.500000    0.000000     0.67000    1.000000
      4 Cl    s    0.000000    0.000000    0.000000    -1.28500    1.000000
      5 O     s    0.500000    0.500000    0.500000    -1.82900    1.000000

  Constraints :

  Constraint no.      Unconstrained     Constrained    Coefficient    Offset
                         Variable         Variable
           1              Strain 1        Strain 2       1.00000      0.0000
           2              Strain 1        Strain 3       1.00000      0.0000

*  General input information                                                   *

  Species output for all configurations :

  Species    Type    Atomic    Atomic    Charge       Radii (Angs)     Library
                     Number     Mass       (e)     Cova   Ionic  VDW   Symbol
    Na       Core       11      22.99   0.670000   0.970  0.000  2.300
    O        Core        8      16.00   0.489000   0.730  0.000  1.360
    O        Shell       8       0.00  -1.829000   0.730  0.000  1.360
    Cl       Core       17      35.45   0.615000   0.990  0.000  1.650
    Cl       Shell      17       0.00  -1.285000   0.990  0.000  1.650

  Lattice summation method               =    Ewald          (3-D)
                                         =    Parry          (2-D)
                                         =    Saunders et al (1-D)
  Accuracy factor for lattice sums       =   12.000

  Analytic derivatives to be used

  Time limit = Infinity

  Maximum range for interatomic potentials =    100000.000000 Angstroms

  General interatomic potentials :

Atom  Types   Potential      Parameter       Value         Units   Cutoffs(Ang)
  1     2                                                            Min /  Max
O    c O    s Spring (c-s)  Spring k 2       34.450000    eV*Ang^-2 0.000  0.800
                            Spring k 4       0.0000000    eV*Ang^-4
Cl   c Cl   s Spring (c-s)  Spring k 2       28.250000    eV*Ang^-2 0.000  0.800
                            Spring k 4       0.0000000    eV*Ang^-4
Na   c Na   c Buckingham    Buckingham A     996.28210    eV        0.000 12.000
                            Buckingham rho  0.28830000    Ang
                            Buckingham C     0.0000000    eV*Ang^6
Na   c O    s Buckingham    Buckingham A     12439.222    eV        0.000 12.000
                            Buckingham rho  0.20150000    Ang
                            Buckingham C     0.0000000    eV*Ang^6
Na   c Cl   s Buckingham    Buckingham A     20907.738    eV        0.000 12.000
                            Buckingham rho  0.21660000    Ang
                            Buckingham C     0.0000000    eV*Ang^6
O    s O    s Buckingham    Buckingham A     35546.853    eV        0.000 12.000
                            Buckingham rho  0.12056000    Ang
                            Buckingham C     13.190000    eV*Ang^6
O    s Cl   s Buckingham    Buckingham A     47777.071    eV        0.000 12.000
                            Buckingham rho  0.24370000    Ang
                            Buckingham C     62.200000    eV*Ang^6
Cl   s Cl   s Buckingham    Buckingham A     35155.254    eV        0.000 12.000
                            Buckingham rho  0.21360000    Ang
                            Buckingham C     14.530000    eV*Ang^6

*  Output for configuration   1                                                *

  Components of energy :

  Interatomic potentials     =           1.21745275 eV
  Monopole - monopole (real) =          -4.50527050 eV
  Monopole - monopole (recip)=         -13.25862634 eV
  Monopole - monopole (total)=         -17.76389683 eV
  Total lattice energy       =         -16.54644409 eV
  Total lattice energy       =           -1596.4789 kJ/(mole unit cells)

  Number of variables =        1

  Maximum number of calculations  =          1000
  Maximum Hessian update interval =            10
  Maximum step size               =   1.000000000
  Maximum parameter tolerance     =   0.000010000
  Maximum function  tolerance     =   0.000010000
  Maximum gradient  tolerance     =   0.001000000
  Maximum gradient  component     =   0.010000000

  Symmetry constrained optimisation

  Symmetry used for second derivatives

  Cell parameters to be optimised using strains

  Newton-Raphson optimiser to be used

  BFGS hessian update to be used

  Lower half triangular hessian to be used

  Start of bulk optimisation :

  ** Hessian calculated **

  **** Optimisation achieved ****

  Final energy =     -16.57035847 eV
  Final Gnorm  =       0.00000012

  Components of energy :

  Interatomic potentials     =           1.49654868 eV
  Monopole - monopole (real) =          -4.58211982 eV
  Monopole - monopole (recip)=         -13.48478733 eV
  Monopole - monopole (total)=         -18.06690714 eV
  Total lattice energy       =         -16.57035847 eV
  Total lattice energy       =           -1598.7863 kJ/(mole unit cells)

  Final asymmetric unit coordinates :

   No.  Atomic        x           y           z         Radius
        Label       (Frac)      (Frac)      (Frac)       (Angs)
     1  Cl    c     0.000000    0.000000    0.000000    0.000000
     2  O     c     0.500000    0.500000    0.500000    0.000000
     3  Na    c     0.500000    0.500000    0.000000    0.000000
     4  Cl    s     0.000000    0.000000    0.000000    0.000000
     5  O     s     0.500000    0.500000    0.500000    0.000000

  Final Cartesian lattice vectors (Angstroms) :

        4.428461    0.000000    0.000000
        0.000000    4.428461    0.000000
        0.000000    0.000000    4.428461

  Final cell parameters and derivatives :

       a            4.428461 Angstrom     dE/de1(xx)     0.000000 eV/strain
       b            4.428461 Angstrom     dE/de2(yy)     0.000000 eV/strain
       c            4.428461 Angstrom     dE/de3(zz)     0.000000 eV/strain
       alpha       90.000000 Degrees      dE/de4(yz)     0.000000 eV/strain
       beta        90.000000 Degrees      dE/de5(xz)     0.000000 eV/strain
       gamma       90.000000 Degrees      dE/de6(xy)     0.000000 eV/strain

  Primitive cell volume =            86.847723 Angs**3

  Density of cell =      2.302482 g/cm**3

  Non-primitive cell volume =            86.847723 Angs**3

  Final internal derivatives :

   No.  Atomic          a             b             c           Radius
        Label          (eV)          (eV)          (eV)        (eV/Angs)
      1 Cl    c       0.000000      0.000000      0.000000      0.000000
      2 O     c       0.000000      0.000000      0.000000      0.000000
      3 Na    c       0.000000      0.000000      0.000000      0.000000
      4 Cl    s       0.000000      0.000000      0.000000      0.000000
      5 O     s       0.000000      0.000000      0.000000      0.000000
  Maximum abs         0.000000      0.000000      0.000000      0.000000

  Comparison of initial and final structures :

  Parameter   Initial value   Final value   Difference    Units      Percent
    Volume        91.368216     86.847723    -4.520493    Angs**3     -4.95
    a              4.504000      4.428461    -0.075539    Angstroms   -1.68
    b              4.504000      4.428461    -0.075539    Angstroms   -1.68
    c              4.504000      4.428461    -0.075539    Angstroms   -1.68
    alpha         90.000000     90.000000     0.000000    Degrees      0.00
    beta          90.000000     90.000000     0.000000    Degrees      0.00
    gamma         90.000000     90.000000     0.000000    Degrees      0.00
      1 x          0.000000      0.000000     0.000000    Fractional   0.00
      1 y          0.000000      0.000000     0.000000    Fractional   0.00
      1 z          0.000000      0.000000     0.000000    Fractional   0.00
      2 x          0.500000      0.500000     0.000000    Fractional   0.00
      2 y          0.500000      0.500000     0.000000    Fractional   0.00
      2 z          0.500000      0.500000     0.000000    Fractional   0.00
      3 x          0.500000      0.500000     0.000000    Fractional   0.00
      3 y          0.500000      0.500000     0.000000    Fractional   0.00
      3 z          0.000000      0.000000     0.000000    Fractional   0.00
      4 x          0.000000      0.000000     0.000000    Fractional   0.00
      4 y          0.000000      0.000000     0.000000    Fractional   0.00
      4 z          0.000000      0.000000     0.000000    Fractional   0.00
      5 x          0.500000      0.500000     0.000000    Fractional   0.00
      5 y          0.500000      0.500000     0.000000    Fractional   0.00
      5 z          0.500000      0.500000     0.000000    Fractional   0.00

  Born effective charge tensors :

  Atom             x           y             z
    1 Cl    x      -0.6995     -0.0000     -0.0000
            y      -0.0000     -0.6995     -0.0000
            z      -0.0000     -0.0000     -0.6995
    2 O     x      -1.0805      0.0000      0.0000
            y       0.0000     -1.0805      0.0000
            z       0.0000      0.0000     -1.0805
    3 Na    x       0.6486      0.0000     -0.0000
            y       0.0000      0.6486      0.0000
            z      -0.0000      0.0000      0.4827

  Elastic Constant Matrix: (Units=GPa)

  Indices      1         2         3         4         5         6
       1     77.0757   16.0262   16.0262   -0.0000   -0.0000   -0.0000
       2     16.0262   77.0757   16.0262   -0.0000   -0.0000    0.0000
       3     16.0262   16.0262   77.0757    0.0000    0.0000    0.0000
       4     -0.0000   -0.0000    0.0000   16.0262    0.0000   -0.0000
       5     -0.0000   -0.0000    0.0000    0.0000   16.0262   -0.0000
       6     -0.0000    0.0000    0.0000   -0.0000   -0.0000   16.0262

  Elastic Compliance Matrix: (Units=1/GPa)

[...]
    50  O     s     4.430729    8.860415   -2.212970   -1.829000
    51  Cl    s     6.664144    6.664144    4.441189   -1.285000

  Final derivatives for region 1 :

   No.  Atomic          x             y             z            Radius
        Label       (eV/Angs)     (eV/Angs)     (eV/Angs)       (eV/Angs)
     1  O     c       0.000000      0.000000     -0.001207      0.000000
     2  Cl    c       0.004148      0.000000      0.000000      0.000000
     3  Na    c       0.007144      0.000000     -0.004158      0.000000
     4  Na    c       0.000000      0.000000     -0.001016      0.000000
     5  Na    c       0.000000     -0.000797      0.000000      0.000000
     6  O     c       0.000000      0.001140      0.000571      0.000000
     7  Cl    c       0.000704      0.000000      0.000673      0.000000
     8  Na    c      -0.000690      0.001423      0.000161      0.000000
     9  Na    c       0.000000      0.000857     -0.001026      0.000000
    10  Na    c      -0.000227      0.000000      0.000000      0.000000
    11  O     c       0.000610      0.000000     -0.000223      0.000000
    12  O     c       0.000000      0.000000      0.000171      0.000000
    13  Cl    c       0.001124      0.000522      0.000000      0.000000
    14  Na    c       0.000119      0.000000      0.000905      0.000000
    15  Na    c      -0.000497      0.000000      0.000235      0.000000
    16  Na    c       0.000116      0.000000      0.000160      0.000000
    17  O     c       0.000000      0.000290      0.000135      0.000000
    18  Cl    c       0.000706      0.000423      0.000358      0.000000
    19  Na    c       0.000052     -0.000499     -0.000567      0.000000
    20  Na    c       0.000564      0.000337     -0.000275      0.000000
    21  Na    c       0.000000      0.000000      0.000132      0.000000
    22  Na    c       0.000000      0.000447      0.000000      0.000000
    23  O     c       0.000000     -0.000192     -0.000024      0.000000
    24  O     c       0.000425      0.000000      0.000206      0.000000
    25  Cl    c       0.000193      0.000000      0.000360      0.000000
    26  Na    c      -0.000272      0.000202     -0.000158      0.000000
    27  Cl    c       0.000238      0.000000      0.000000      0.000000
    28  Na    c       0.000106      0.000000      0.000286      0.000000
    29  Na    c       0.000000      0.000109      0.000303      0.000000
    30  Na    c       0.000000      0.000412      0.000083      0.000000
    31  Na    c       0.000118      0.000211      0.000000      0.000000
    32  O     c       0.000190      0.000344     -0.000096      0.000000
    33  Cl    c       0.000328      0.000000      0.000093      0.000000
    34  Na    c       0.000334      0.000276      0.000304      0.000000
    35  Na    c       0.000240      0.000000      0.000224      0.000000
    36  Na    c       0.000112      0.000256      0.000162      0.000000
    37  O     s       0.000000      0.000000      0.003366      0.000000
    38  Cl    s      -0.006325      0.000000      0.000000      0.000000
    39  O     s       0.000000     -0.003084      0.002231      0.000000
    40  Cl    s      -0.000914      0.000000     -0.001064      0.000000
    41  O     s      -0.002285      0.000000      0.001109      0.000000
    42  O     s       0.000000      0.000000     -0.000263      0.000000
    43  Cl    s      -0.000221     -0.000167      0.000000      0.000000
    44  O     s       0.000000     -0.000585     -0.001053      0.000000
    45  Cl    s      -0.000274     -0.001015     -0.000248      0.000000
    46  O     s       0.000000     -0.001572      0.000543      0.000000
    47  O     s      -0.001814      0.000000     -0.000910      0.000000
    48  Cl    s      -0.000265      0.000000     -0.000746      0.000000
    49  Cl    s      -0.000460      0.000000      0.000000      0.000000
    50  O     s      -0.000716     -0.001285      0.000399      0.000000
    51  Cl    s      -0.000681      0.000000     -0.000204      0.000000

  Comparison of initial and final region 1 :

  Parameter   Initial value   Final value   Difference    Units      Percent
      1 x          2.214230      2.214230     0.000000    Cartesian    0.00
      1 y          2.214230      2.214230     0.000000    Cartesian    0.00
      1 z         -2.214230     -2.296096    -0.081866    Cartesian    3.70
      2 x          4.428461      4.554730     0.126270    Cartesian    2.85
      2 y          4.428461      4.554730     0.126270    Cartesian    2.85
      2 z          0.000000      0.000000     0.000000    Cartesian    0.00
      3 x          4.428461      4.363519    -0.064942    Cartesian   -1.47
      3 y          2.214230      2.214230     0.000000    Cartesian    0.00
      3 z         -2.214230     -1.902581     0.311649    Cartesian  -14.07
      4 x          2.214230      2.214230     0.000000    Cartesian    0.00
      4 y          2.214230      2.214230     0.000000    Cartesian    0.00
      4 z          4.428461      4.443832     0.015371    Cartesian    0.35
      5 x          2.214230      2.214230     0.000000    Cartesian    0.00
      5 y          6.642691      6.824353     0.181662    Cartesian    2.73
      5 z          0.000000      0.000000     0.000000    Cartesian    0.00
      6 x          2.214230      2.214230     0.000000    Cartesian    0.00
      6 y          6.642691      6.614287    -0.028404    Cartesian   -0.43
      6 z         -2.214230     -2.198544     0.015687    Cartesian   -0.71
      7 x          4.428461      4.506782     0.078321    Cartesian    1.77
      7 y          4.428461      4.506782     0.078321    Cartesian    1.77
      7 z          4.428461      4.523858     0.095397    Cartesian    2.15
      8 x          4.428461      4.426226    -0.002235    Cartesian   -0.05
      8 y          6.642691      6.600959    -0.041733    Cartesian   -0.63
      8 z         -2.214230     -2.215058    -0.000827    Cartesian    0.04
      9 x          2.214230      2.214230     0.000000    Cartesian    0.00
      9 y          6.642691      6.429157    -0.213534    Cartesian   -3.21
      9 z          4.428461      4.404980    -0.023481    Cartesian   -0.53
     10 x          6.642691      6.630730    -0.011961    Cartesian   -0.18
     10 y          6.642691      6.630730    -0.011961    Cartesian   -0.18
     10 z          0.000000      0.000000     0.000000    Cartesian    0.00
     11 x          6.642691      6.647980     0.005288    Cartesian    0.08
     11 y          6.642691      6.647980     0.005288    Cartesian    0.08
     11 z         -2.214230     -2.219409    -0.005178    Cartesian    0.23
     12 x          2.214230      2.214230     0.000000    Cartesian    0.00
     12 y          2.214230      2.214230     0.000000    Cartesian    0.00
     12 z          6.642691      6.672616     0.029924    Cartesian    0.45
     13 x          4.428461      4.440594     0.012133    Cartesian    0.27
     13 y          8.856922      8.889282     0.032360    Cartesian    0.37
     13 z          0.000000      0.000000     0.000000    Cartesian    0.00
     14 x          4.428461      4.421048    -0.007413    Cartesian   -0.17
     14 y          2.214230      2.214230     0.000000    Cartesian    0.00
     14 z          6.642691      6.684364     0.041672    Cartesian    0.63
     15 x          8.856922      8.835484    -0.021438    Cartesian   -0.24
     15 y          2.214230      2.214230     0.000000    Cartesian    0.00
     15 z         -2.214230     -2.349355    -0.135125    Cartesian    6.10
     16 x          6.642691      6.641592    -0.001100    Cartesian   -0.02
     16 y          6.642691      6.641592    -0.001100    Cartesian   -0.02
     16 z          4.428461      4.429846     0.001385    Cartesian    0.03
     17 x          2.214230      2.214230     0.000000    Cartesian    0.00
     17 y          6.642691      6.633431    -0.009260    Cartesian   -0.14
     17 z          6.642691      6.629361    -0.013330    Cartesian   -0.20
     18 x          4.428461      4.442220     0.013759    Cartesian    0.31
     18 y          8.856922      8.895397     0.038475    Cartesian    0.43
     18 z          4.428461      4.432149     0.003688    Cartesian    0.08
     19 x          4.428461      4.429075     0.000614    Cartesian    0.01
     19 y          6.642691      6.639845    -0.002847    Cartesian   -0.04
     19 z          6.642691      6.614746    -0.027945    Cartesian   -0.42
     20 x          8.856922      8.855413    -0.001508    Cartesian   -0.02
     20 y          6.642691      6.631212    -0.011480    Cartesian   -0.17
     20 z         -2.214230     -2.207646     0.006585    Cartesian   -0.30
     21 x          2.214230      2.214230     0.000000    Cartesian    0.00
     21 y          2.214230      2.214230     0.000000    Cartesian    0.00
     21 z          8.856922      8.873799     0.016877    Cartesian    0.19
     22 x          2.214230      2.214230     0.000000    Cartesian    0.00
     22 y         11.071152     10.985864    -0.085288    Cartesian   -0.77
     22 z          0.000000      0.000000     0.000000    Cartesian    0.00
     23 x          2.214230      2.214230     0.000000    Cartesian    0.00
     23 y         11.071152     11.062450    -0.008702    Cartesian   -0.08
     23 z         -2.214230     -2.220810    -0.006579    Cartesian    0.30
     24 x          6.642691      6.648739     0.006047    Cartesian    0.09
     24 y          6.642691      6.648739     0.006047    Cartesian    0.09
     24 z          6.642691      6.646822     0.004131    Cartesian    0.06
     25 x          4.428461      4.430549     0.002088    Cartesian    0.05
     25 y          4.428461      4.430549     0.002088    Cartesian    0.05
     25 z          8.856922      8.891171     0.034249    Cartesian    0.39
     26 x          4.428461      4.427132    -0.001329    Cartesian   -0.03
     26 y         11.071152     11.058268    -0.012884    Cartesian   -0.12
     26 z         -2.214230     -2.197327     0.016904    Cartesian   -0.76
     27 x          8.856922      8.876185     0.019263    Cartesian    0.22
     27 y          8.856922      8.876185     0.019263    Cartesian    0.22
     27 z          0.000000      0.000000     0.000000    Cartesian    0.00
     28 x          8.856922      8.845306    -0.011616    Cartesian   -0.13
     28 y          2.214230      2.214230     0.000000    Cartesian    0.00
     28 z          6.642691      6.563084    -0.079608    Cartesian   -1.20
     29 x          2.214230      2.214230     0.000000    Cartesian    0.00
     29 y          6.642691      6.667135     0.024443    Cartesian    0.37
     29 z          8.856922      8.846452    -0.010470    Cartesian   -0.12
     30 x          2.214230      2.214230     0.000000    Cartesian    0.00
     30 y         11.071152     11.103022     0.031869    Cartesian    0.29
     30 z          4.428461      4.430274     0.001813    Cartesian    0.04
     31 x          6.642691      6.645846     0.003154    Cartesian    0.05
     31 y         11.071152     11.062972    -0.008180    Cartesian   -0.07
     31 z          0.000000      0.000000     0.000000    Cartesian    0.00
     32 x          6.642691      6.644793     0.002101    Cartesian    0.03
     32 y         11.071152     11.074462     0.003309    Cartesian    0.03
     32 z         -2.214230     -2.213079     0.001151    Cartesian   -0.05
     33 x          8.856922      8.877643     0.020721    Cartesian    0.23
     33 y          8.856922      8.877643     0.020721    Cartesian    0.23
     33 z          4.428461      4.440709     0.012248    Cartesian    0.28
     34 x          8.856922      8.856289    -0.000633    Cartesian   -0.01
     34 y          6.642691      6.638648    -0.004043    Cartesian   -0.06
     34 z          6.642691      6.643928     0.001237    Cartesian    0.02
     35 x          6.642691      6.627174    -0.015517    Cartesian   -0.23
     35 y          6.642691      6.627174    -0.015517    Cartesian   -0.23
     35 z          8.856922      8.853841    -0.003081    Cartesian   -0.03
     36 x          6.642691      6.631903    -0.010789    Cartesian   -0.16
     36 y         11.071152     11.052036    -0.019117    Cartesian   -0.17
     36 z          4.428461      4.426102    -0.002359    Cartesian   -0.05
     37 x          2.214230      2.214230     0.000000    Cartesian    0.00
     37 y          2.214230      2.214230     0.000000    Cartesian    0.00
     37 z         -2.214230     -2.302895    -0.088664    Cartesian    4.00
     38 x          4.428461      4.557356     0.128896    Cartesian    2.91
     38 y          4.428461      4.557356     0.128896    Cartesian    2.91
     38 z          0.000000      0.000000     0.000000    Cartesian    0.00
     39 x          2.214230      2.214230     0.000000    Cartesian    0.00
     39 y          6.642691      6.616516    -0.026175    Cartesian   -0.39
     39 z         -2.214230     -2.197900     0.016331    Cartesian   -0.74
     40 x          4.428461      4.510159     0.081698    Cartesian    1.84
     40 y          4.428461      4.510159     0.081698    Cartesian    1.84
     40 z          4.428461      4.527623     0.099162    Cartesian    2.24
     41 x          6.642691      6.648279     0.005587    Cartesian    0.08
     41 y          6.642691      6.648279     0.005587    Cartesian    0.08
     41 z         -2.214230     -2.219700    -0.005469    Cartesian    0.25
     42 x          2.214230      2.214230     0.000000    Cartesian    0.00
     42 y          2.214230      2.214230     0.000000    Cartesian    0.00
     42 z          6.642691      6.674608     0.031916    Cartesian    0.48
     43 x          4.428461      4.440682     0.012221    Cartesian    0.28
     43 y          8.856922      8.890529     0.033607    Cartesian    0.38
     43 z          0.000000      0.000000     0.000000    Cartesian    0.00
     44 x          2.214230      2.214230     0.000000    Cartesian    0.00
     44 y          6.642691      6.632602    -0.010089    Cartesian   -0.15
     44 z          6.642691      6.630038    -0.012653    Cartesian   -0.19
     45 x          4.428461      4.442485     0.014024    Cartesian    0.32
     45 y          8.856922      8.897165     0.040244    Cartesian    0.45
     45 z          4.428461      4.432247     0.003786    Cartesian    0.09
     46 x          2.214230      2.214230     0.000000    Cartesian    0.00
     46 y         11.071152     11.062648    -0.008504    Cartesian   -0.08
     46 z         -2.214230     -2.221915    -0.007684    Cartesian    0.35
     47 x          6.642691      6.649136     0.006445    Cartesian    0.10
     47 y          6.642691      6.649136     0.006445    Cartesian    0.10
     47 z          6.642691      6.646968     0.004276    Cartesian    0.06
     48 x          4.428461      4.430468     0.002008    Cartesian    0.05
     48 y          4.428461      4.430468     0.002008    Cartesian    0.05
     48 z          8.856922      8.892151     0.035229    Cartesian    0.40
     49 x          8.856922      8.876909     0.019987    Cartesian    0.23
     49 y          8.856922      8.876909     0.019987    Cartesian    0.23
     49 z          0.000000      0.000000     0.000000    Cartesian    0.00
     50 x          6.642691      6.644959     0.002268    Cartesian    0.03
     50 y         11.071152     11.074645     0.003493    Cartesian    0.03
     50 z         -2.214230     -2.212970     0.001261    Cartesian   -0.06
     51 x          8.856922      8.878375     0.021453    Cartesian    0.24
     51 y          8.856922      8.878375     0.021453    Cartesian    0.24
     51 z          4.428461      4.441189     0.012728    Cartesian    0.29

  Time to end of optimisation  =        9.0685 seconds

  Timing analysis for GULP :

  Task / Subroutine                                          Time (Seconds)
  Calculation of reciprocal space energy and derivatives          0.0002
  Calculation of reciprocal space energy using symmetry           0.0004
  Calculation of real space energy and derivatives                0.0012
  Calculation of real space energy using symmetry                 0.0036
  Calculation for region 1 energy and derivatives (2-b)           2.2696
  Calculation for region 2a energy                                6.6981
  Calculation for region 2b energy                                0.0001
  Calculation and manipulation of Hessian matrix                  0.0241
  Calculation of matrix inversion                                 0.0010
  Symmetry generation of equivalent positions                     0.0015

  Dump file written as Na3OCl.grs

  Job Finished at 16:22.39  5th July       2021