  Job Started  at 18:06.30 30th November   2020

  Number of CPUs =     1

  Total number of configurations input =      1

*  Input for Configuration =   1                                               *

  Formula = OBa

  Number of irreducible atoms/shells =       4

  Total number atoms/shells =       4

  Dimensionality = 3               :  Bulk

  Symmetry :

  Crystal family                   :  Cubic
  Crystal class  (Groth - 1921)    :  Cubic Hexakisoctahedral

  Space group (centrosymmetric)    :  F M 3 M

  Patterson group                  :  F m -3 m

  Cartesian lattice vectors (Angstroms) :

        0.000000    1.380000    1.380000
        1.380000    0.000000    1.380000
        1.380000    1.380000    0.000000

  Primitive cell parameters :            Full cell parameters :

  a =   1.9516    alpha =  60.0000       a =   2.7600    alpha =  90.0000
  b =   1.9516    beta  =  60.0000       b =   2.7600    beta  =  90.0000
  c =   1.9516    gamma =  60.0000       c =   2.7600    gamma =  90.0000

  Initial volumes (Angstroms**3):

  Primitive cell =           5.256144    Full cell =          21.024576

  Temperature of configuration =   0.00     K

  Pressure of configuration =         0.000 GPa

  Fractional coordinates of asymmetric unit :

   No.  Atomic       x           y          z         Charge      Occupancy
        Label      (Frac)      (Frac)     (Frac)        (e)         (Frac)
      1 O     c    0.000000    0.000000    0.000000     0.18300    1.000000
      2 Ba    c    0.500000    0.000000    0.000000    -7.20300    1.000000
      3 O     s    0.000000    0.000000    0.000000    -2.18300    1.000000
      4 Ba    s    0.500000    0.000000    0.000000     9.20300    1.000000

  Constraints :

  Constraint no.      Unconstrained     Constrained    Coefficient    Offset
                         Variable         Variable
           1              Strain 1        Strain 2       1.00000      0.0000
           2              Strain 1        Strain 3       1.00000      0.0000

*  General input information                                                   *

  Species output for all configurations :

  Species    Type    Atomic    Atomic    Charge       Radii (Angs)     Library
                     Number     Mass       (e)     Cova   Ionic  VDW   Symbol
    Na       Core       11      22.99   1.000000   0.970  0.000  0.000
    O        Core        8      16.00   0.183000   0.730  0.000  1.360
    O        Shell       8       0.00  -2.183000   0.730  0.000  1.360
    Cl       Core       17      35.45   1.485000   0.990  0.000  0.000
    Cl       Shell      17       0.00  -2.485000   0.990  0.000  0.000
    Mg       Core       12      24.31   0.415000   1.100  0.000  0.000
    Mg       Shell      12       0.00   1.585000   1.100  0.000  0.000
    Ca       Core       20      40.08  -1.135000   0.990  0.000  0.000
    Ca       Shell      20       0.00   3.135000   0.990  0.000  0.000
    Sr       Core       38      87.62  -1.251000   1.120  0.000  0.000
    Sr       Shell      38       0.00   3.251000   1.120  0.000  0.000
    Ba       Core       56     137.33  -7.203000   1.340  0.000  2.000
    Ba       Shell      56       0.00   9.203000   1.340  0.000  2.000

  Lattice summation method               =    Ewald          (3-D)
                                         =    Parry          (2-D)
                                         =    Saunders et al (1-D)
  Accuracy factor for lattice sums       =   12.000

  Analytic derivatives to be used

  Time limit = Infinity

  Maximum range for interatomic potentials =    100000.000000 Angstroms

  General interatomic potentials :

Atom  Types   Potential      Parameter       Value         Units   Cutoffs(Ang)
  1     2                                                            Min /  Max
O    c O    s Spring (c-s)  Spring k 2       593.71600    eV*Ang^-2 0.000  0.800
                            Spring k 4       0.0000000    eV*Ang^-4
Cl   c Cl   s Spring (c-s)  Spring k 2       29.380000    eV*Ang^-2 0.000  0.800
                            Spring k 4       0.0000000    eV*Ang^-4
Mg   c Mg   s Spring (c-s)  Spring k 2       361.60000    eV*Ang^-2 0.000  0.800
                            Spring k 4       0.0000000    eV*Ang^-4
Ca   c Ca   s Spring (c-s)  Spring k 2       110.20000    eV*Ang^-2 0.000  0.800
                            Spring k 4       0.0000000    eV*Ang^-4
Sr   c Sr   s Spring (c-s)  Spring k 2       71.700000    eV*Ang^-2 0.000  0.800
                            Spring k 4       0.0000000    eV*Ang^-4
Ba   c Ba   s Spring (c-s)  Spring k 2       495.20000    eV*Ang^-2 0.000  0.800
                            Spring k 4       0.0000000    eV*Ang^-4
Na   c Na   c Buckingham    Buckingham A     1788.1900    eV        0.000 12.000
                            Buckingham rho  0.15900000    Ang
                            Buckingham C     0.0000000    eV*Ang^6
Na   c O    s Buckingham    Buckingham A     1226.8400    eV        0.000 12.000
                            Buckingham rho  0.30700000    Ang
                            Buckingham C     0.0000000    eV*Ang^6
Na   c Cl   s Buckingham    Buckingham A     2314.7000    eV        0.000 12.000
                            Buckingham rho  0.29000000    Ang
                            Buckingham C     0.0000000    eV*Ang^6
O    s O    s Buckingham    Buckingham A     22764.300    eV        0.000 12.000
                            Buckingham rho  0.14900000    Ang
                            Buckingham C     13.190000    eV*Ang^6
O    s Cl   s Buckingham    Buckingham A     8286.9100    eV        0.000 12.000
                            Buckingham rho  0.25900000    Ang
                            Buckingham C     62.200000    eV*Ang^6
Cl   s Cl   s Buckingham    Buckingham A     1227.2000    eV        0.000 12.000
                            Buckingham rho  0.32100000    Ang
                            Buckingham C     14.530000    eV*Ang^6
O    s Mg   s Buckingham    Buckingham A     1428.5000    eV        0.000 12.000
                            Buckingham rho  0.29450000    Ang
                            Buckingham C     0.0000000    eV*Ang^6
Mg   s Cl   s Buckingham    Buckingham A     4914.5400    eV        0.000 12.000
                            Buckingham rho  0.25700000    Ang
                            Buckingham C     0.0000000    eV*Ang^6
O    s Ca   s Buckingham    Buckingham A     1090.4000    eV        0.000 12.000
                            Buckingham rho  0.34370000    Ang
                            Buckingham C     0.0000000    eV*Ang^6
Cl   s Ca   s Buckingham    Buckingham A     2302.0000    eV        0.000 12.000
                            Buckingham rho  0.34020000    Ang
                            Buckingham C     0.0000000    eV*Ang^6
O    s Sr   s Buckingham    Buckingham A     959.10000    eV        0.000 12.000
                            Buckingham rho  0.37210000    Ang
                            Buckingham C     0.0000000    eV*Ang^6
Cl   s Sr   s Buckingham    Buckingham A     2191.0900    eV        0.000 12.000
                            Buckingham rho  0.34570000    Ang
                            Buckingham C     0.0000000    eV*Ang^6
O    s Ba   s Buckingham    Buckingham A     905.70000    eV        0.000 12.000
                            Buckingham rho  0.39760000    Ang
                            Buckingham C     0.0000000    eV*Ang^6
Cl   s Ba   s Buckingham    Buckingham A     2704.5500    eV        0.000 12.000
                            Buckingham rho  0.35280000    Ang
                            Buckingham C     0.0000000    eV*Ang^6

*  Output for configuration   1                                                *

  Components of energy :

  Interatomic potentials     =         195.68151049 eV
  Monopole - monopole (real) =          -5.85382945 eV
  Monopole - monopole (recip)=         -67.08677331 eV
  Monopole - monopole (total)=         -72.94060276 eV
  Total lattice energy :
    Primitive unit cell      =         122.74090773 eV
    Non-primitive unit cell  =         490.96363092 eV
  Total lattice energy (in kJmol-1):
    Primitive unit cell      =           11842.6213 kJ/(mole unit cells)
    Non-primitive unit cell  =           47370.4853 kJ/(mole unit cells)

  Number of variables =        1

  Maximum number of calculations  =          1000
  Maximum Hessian update interval =            10
  Maximum step size               =   1.000000000
  Maximum parameter tolerance     =   0.000010000
  Maximum function  tolerance     =   0.000010000
  Maximum gradient  tolerance     =   0.001000000
  Maximum gradient  component     =   0.010000000

  Symmetry constrained optimisation

  Symmetry used for second derivatives

  Cell parameters to be optimised using strains

  Newton-Raphson optimiser to be used

  BFGS hessian update to be used

  Lower half triangular hessian to be used

  Start of bulk optimisation :

  ** Hessian calculated **
  ** Hessian calculated **

  **** Optimisation achieved ****

  Final energy =     -31.19680295 eV
  Final Gnorm  =       0.00000003

  Components of energy :

  Interatomic potentials     =           5.19064248 eV
  Monopole - monopole (real) =          -2.92026514 eV
  Monopole - monopole (recip)=         -33.46718029 eV
  Monopole - monopole (total)=         -36.38744543 eV
  Total lattice energy :
    Primitive unit cell      =         -31.19680295 eV
    Non-primitive unit cell  =        -124.78721181 eV
  Total lattice energy (in kJmol-1):
    Primitive unit cell      =           -3010.0146 kJ/(mole unit cells)
    Non-primitive unit cell  =          -12040.0584 kJ/(mole unit cells)

  Final asymmetric unit coordinates :

   No.  Atomic        x           y           z         Radius
        Label       (Frac)      (Frac)      (Frac)       (Angs)
     1  O     c     0.000000    0.000000    0.000000    0.000000
     2  Ba    c     0.500000    0.000000    0.000000    0.000000
     3  O     s     0.000000    0.000000    0.000000    0.000000
     4  Ba    s     0.500000    0.000000    0.000000    0.000000

  Final Cartesian lattice vectors (Angstroms) :

        0.000000    2.766285    2.766285
        2.766285    0.000000    2.766285
        2.766285    2.766285    0.000000

  Final cell parameters and derivatives :

       a            3.912117 Angstrom     dE/de1(xx)     0.000000 eV/strain
       b            3.912117 Angstrom     dE/de2(yy)     0.000000 eV/strain
       c            3.912117 Angstrom     dE/de3(zz)     0.000000 eV/strain
       alpha       60.000000 Degrees      dE/de4(yz)     0.000000 eV/strain
       beta        60.000000 Degrees      dE/de5(xz)     0.000000 eV/strain
       gamma       60.000000 Degrees      dE/de6(xy)     0.000000 eV/strain

  Primitive cell volume =            42.337050 Angs**3

  Density of cell =      6.013988 g/cm**3

  Non-primitive lattice parameters :

  a    =     5.532569  b   =     5.532569  c    =     5.532569
  alpha=    90.000000  beta=    90.000000  gamma=    90.000000

  Non-primitive cell volume =           169.348201 Angs**3

  Final internal derivatives :

   No.  Atomic          a             b             c           Radius
        Label          (eV)          (eV)          (eV)        (eV/Angs)
      1 O     c       0.000000      0.000000      0.000000      0.000000
      2 Ba    c       0.000000      0.000000      0.000000      0.000000
      3 O     s       0.000000      0.000000      0.000000      0.000000
      4 Ba    s       0.000000      0.000000      0.000000      0.000000
  Maximum abs         0.000000      0.000000      0.000000      0.000000

  Comparison of initial and final structures :

  Parameter   Initial value   Final value   Difference    Units      Percent
    Volume        21.024576    169.348201   148.323625    Angs**3    705.48
    a              2.760000      5.532569     2.772569    Angstroms  100.46
    b              2.760000      5.532569     2.772569    Angstroms  100.46
    c              2.760000      5.532569     2.772569    Angstroms  100.46
    alpha         90.000000     90.000000     0.000000    Degrees      0.00
    beta          90.000000     90.000000     0.000000    Degrees      0.00
    gamma         90.000000     90.000000     0.000000    Degrees      0.00
      1 x          0.000000      0.000000     0.000000    Fractional   0.00
      1 y          0.000000      0.000000     0.000000    Fractional   0.00
      1 z          0.000000      0.000000     0.000000    Fractional   0.00
      2 x          0.500000      0.500000     0.000000    Fractional   0.00
      2 y          0.000000      0.000000     0.000000    Fractional   0.00
      2 z          0.000000      0.000000     0.000000    Fractional   0.00
      3 x          0.000000      0.000000     0.000000    Fractional   0.00
      3 y          0.000000      0.000000     0.000000    Fractional   0.00
      3 z          0.000000      0.000000     0.000000    Fractional   0.00
      4 x          0.500000      0.500000     0.000000    Fractional   0.00
      4 y          0.000000      0.000000     0.000000    Fractional   0.00
      4 z          0.000000      0.000000     0.000000    Fractional   0.00

  Born effective charge tensors :

  Atom             x           y             z
    1 O     x      -2.4393     -0.0000      0.0000
            y      -0.0000     -2.4393     -0.0000
            z       0.0000     -0.0000     -2.4393
    2 Ba    x       2.4393      0.0000     -0.0000
            y       0.0000      2.4393      0.0000
            z      -0.0000      0.0000      2.4393

  Elastic Constant Matrix: (Units=GPa)

  Indices      1         2         3         4         5         6
       1    116.6115   57.4313   57.4313    0.0000    0.0000    0.0000
       2     57.4313  116.6115   57.4313   -0.0000    0.0000    0.0000
       3     57.4313   57.4313  116.6115   -0.0000    0.0000   -0.0000
       4      0.0000   -0.0000   -0.0000   57.4313    0.0000   -0.0000
       5      0.0000    0.0000    0.0000    0.0000   57.4313    0.0000
       6      0.0000    0.0000   -0.0000   -0.0000    0.0000   57.4313

  Elastic Compliance Matrix: (Units=1/GPa)

  Indices      1         2         3         4         5         6
       1    0.012705 -0.004192 -0.004192 -0.000000 -0.000000 -0.000000
       2   -0.004192  0.012705 -0.004192  0.000000  0.000000 -0.000000
       3   -0.004192 -0.004192  0.012705  0.000000 -0.000000  0.000000
       4   -0.000000  0.000000  0.000000  0.017412 -0.000000  0.000000
       5   -0.000000  0.000000 -0.000000 -0.000000  0.017412 -0.000000
       6   -0.000000 -0.000000  0.000000  0.000000 -0.000000  0.017412

  Mechanical properties :

  Convention :                    Reuss         Voigt         Hill
  Bulk  Modulus (GPa)     =      77.15804      77.15804      77.15804
  Shear Modulus (GPa)     =      41.72698      46.29483      44.01090
  Velocity S-wave (km/s)  =       2.63407       2.77450       2.70520
  Velocity P-wave (km/s)  =       4.69903       4.80558       4.75260
  Compressibility (1/GPa) =    0.01296041
  Stress axis :                     x             y             z
  Youngs Moduli (GPa)     =      78.70860      78.70860      78.70860
  Poissons Ratio (x)      =                     0.32998       0.32998
  Poissons Ratio (y)      =       0.32998                     0.32998
  Poissons Ratio (z)      =       0.32998       0.32998

  Piezoelectric Strain Matrix: (Units=C/m**2)

  Indices      1         2         3         4         5         6
       x    -0.00000  -0.00000  -0.00000   0.00000   0.00000   0.00000
       y    -0.00000   0.00000  -0.00000   0.00000   0.00000  -0.00000
       z    -0.00000  -0.00000   0.00000   0.00000  -0.00000   0.00000

  Piezoelectric Stress Matrix: (Units=10**-11 C/N)

  Indices      1         2         3         4         5         6
       x    -0.00000   0.00000   0.00000   0.00000   0.00000   0.00000
       y    -0.00000   0.00000  -0.00000   0.00000   0.00000  -0.00000
       z    -0.00000  -0.00000   0.00000   0.00000  -0.00000   0.00000

  Static dielectric constant tensor :

              x         y         z
       x    22.05782   0.00000  -0.00000
       y     0.00000  22.05782  -0.00000
       z    -0.00000  -0.00000  22.05782

  High frequency dielectric constant tensor :

              x         y         z
       x     1.99850  -0.00000   0.00000
       y    -0.00000   1.99850  -0.00000
       z     0.00000  -0.00000   1.99850

  Static refractive indices :

    1 =    4.69657      2 =    4.69657      3 =    4.69657

  High frequency refractive indices :

    1 =    1.41368      2 =    1.41368      3 =    1.41368

  Time to end of optimisation =       0.0313 seconds

*  Defect calculation for configuration   1 :                                  *

  **** No defects for configuration number    1 ****

  Timing analysis for GULP :

  Task / Subroutine                                          Time (Seconds)
  Calculation of reciprocal space energy and derivatives          0.0003
  Calculation of reciprocal space energy using symmetry           0.0006
  Calculation of real space energy and derivatives                0.0016
  Calculation of real space energy using symmetry                 0.0192
  Symmetry generation of equivalent positions                     0.0029

  Dump file written as Na3OCl.grs

  Job Finished at 18:06.30 30th November   2020