  Job Started  at 18:06.30 30th November   2020

  Number of CPUs =     1

  Total number of configurations input =      1

*  Input for Configuration =   1                                               *

  Formula = Ca2Cl4

  Number of irreducible atoms/shells =       4

  Total number atoms/shells =      12

  Dimensionality = 3               :  Bulk

  Symmetry :

  Crystal family                   :  Tetragonal
  Crystal class  (Groth - 1921)    :  Ditetragonal Dipyramidal

  Space group (centrosymmetric)    :  P 42/M N M

  Patterson group                  :  P 4/m m m

  Cartesian lattice vectors (Angstroms) :

        6.439033    0.000000    0.000000
        0.000000    6.439033    0.000000
        0.000000    0.000000    4.223217

  Cell parameters (Angstroms/Degrees):

  a =       6.4390    alpha =  90.0000
  b =       6.4390    beta  =  90.0000
  c =       4.2232    gamma =  90.0000

  Initial cell volume =         175.099417 Angs**3

  Temperature of configuration =   0.00     K

  Pressure of configuration =         0.000 GPa

  Fractional coordinates of asymmetric unit :

   No.  Atomic       x           y          z         Charge      Occupancy
        Label      (Frac)      (Frac)     (Frac)        (e)         (Frac)
      1 Ca    c    0.500000    0.500000    0.500000    -1.13500    1.000000
      2 Cl    c    0.695667 *  0.695667    0.000000     1.48500    1.000000
      3 Ca    s    0.500000    0.500000    0.500000     3.13500    1.000000
      4 Cl    s    0.695667 *  0.695667    0.000000    -2.48500    1.000000

  Constraints :

  Constraint no.      Unconstrained     Constrained    Coefficient    Offset
                         Variable         Variable
           1              Strain 1        Strain 2       1.00000      0.0000
           2                 2 x             2 y         1.00000      0.0000
           3                 4 x             4 y         1.00000      0.0000

*  General input information                                                   *

  Species output for all configurations :

  Species    Type    Atomic    Atomic    Charge       Radii (Angs)     Library
                     Number     Mass       (e)     Cova   Ionic  VDW   Symbol
    Na       Core       11      22.99   1.000000   0.970  0.000  0.000
    O        Core        8      16.00   0.183000   0.730  0.000  0.000
    O        Shell       8       0.00  -2.183000   0.730  0.000  0.000
    Cl       Core       17      35.45   1.485000   0.990  0.000  1.650
    Cl       Shell      17       0.00  -2.485000   0.990  0.000  1.650
    Mg       Core       12      24.31   0.415000   1.100  0.000  0.000
    Mg       Shell      12       0.00   1.585000   1.100  0.000  0.000
    Ca       Core       20      40.08  -1.135000   0.990  0.000  2.750
    Ca       Shell      20       0.00   3.135000   0.990  0.000  2.750
    Sr       Core       38      87.62  -1.251000   1.120  0.000  0.000
    Sr       Shell      38       0.00   3.251000   1.120  0.000  0.000
    Ba       Core       56     137.33  -7.203000   1.340  0.000  0.000
    Ba       Shell      56       0.00   9.203000   1.340  0.000  0.000

  Lattice summation method               =    Ewald          (3-D)
                                         =    Parry          (2-D)
                                         =    Saunders et al (1-D)
  Accuracy factor for lattice sums       =   12.000

  Analytic derivatives to be used

  Time limit = Infinity

  Maximum range for interatomic potentials =    100000.000000 Angstroms

  General interatomic potentials :

Atom  Types   Potential      Parameter       Value         Units   Cutoffs(Ang)
  1     2                                                            Min /  Max
O    c O    s Spring (c-s)  Spring k 2       593.71600    eV*Ang^-2 0.000  0.800
                            Spring k 4       0.0000000    eV*Ang^-4
Cl   c Cl   s Spring (c-s)  Spring k 2       29.380000    eV*Ang^-2 0.000  0.800
                            Spring k 4       0.0000000    eV*Ang^-4
Mg   c Mg   s Spring (c-s)  Spring k 2       361.60000    eV*Ang^-2 0.000  0.800
                            Spring k 4       0.0000000    eV*Ang^-4
Ca   c Ca   s Spring (c-s)  Spring k 2       110.20000    eV*Ang^-2 0.000  0.800
                            Spring k 4       0.0000000    eV*Ang^-4
Sr   c Sr   s Spring (c-s)  Spring k 2       71.700000    eV*Ang^-2 0.000  0.800
                            Spring k 4       0.0000000    eV*Ang^-4
Ba   c Ba   s Spring (c-s)  Spring k 2       495.20000    eV*Ang^-2 0.000  0.800
                            Spring k 4       0.0000000    eV*Ang^-4
Na   c Na   c Buckingham    Buckingham A     1788.1900    eV        0.000 12.000
                            Buckingham rho  0.15900000    Ang
                            Buckingham C     0.0000000    eV*Ang^6
Na   c O    s Buckingham    Buckingham A     1226.8400    eV        0.000 12.000
                            Buckingham rho  0.30700000    Ang
                            Buckingham C     0.0000000    eV*Ang^6
Na   c Cl   s Buckingham    Buckingham A     2314.7000    eV        0.000 12.000
                            Buckingham rho  0.29000000    Ang
                            Buckingham C     0.0000000    eV*Ang^6
O    s O    s Buckingham    Buckingham A     22764.300    eV        0.000 12.000
                            Buckingham rho  0.14900000    Ang
                            Buckingham C     13.190000    eV*Ang^6
O    s Cl   s Buckingham    Buckingham A     8286.9100    eV        0.000 12.000
                            Buckingham rho  0.25900000    Ang
                            Buckingham C     62.200000    eV*Ang^6
Cl   s Cl   s Buckingham    Buckingham A     1227.2000    eV        0.000 12.000
                            Buckingham rho  0.32100000    Ang
                            Buckingham C     14.530000    eV*Ang^6
O    s Mg   s Buckingham    Buckingham A     1428.5000    eV        0.000 12.000
                            Buckingham rho  0.29450000    Ang
                            Buckingham C     0.0000000    eV*Ang^6
Mg   s Cl   s Buckingham    Buckingham A     4914.5400    eV        0.000 12.000
                            Buckingham rho  0.25700000    Ang
                            Buckingham C     0.0000000    eV*Ang^6
O    s Ca   s Buckingham    Buckingham A     1090.4000    eV        0.000 12.000
                            Buckingham rho  0.34370000    Ang
                            Buckingham C     0.0000000    eV*Ang^6
Cl   s Ca   s Buckingham    Buckingham A     2302.0000    eV        0.000 12.000
                            Buckingham rho  0.34020000    Ang
                            Buckingham C     0.0000000    eV*Ang^6
O    s Sr   s Buckingham    Buckingham A     959.10000    eV        0.000 12.000
                            Buckingham rho  0.37210000    Ang
                            Buckingham C     0.0000000    eV*Ang^6
Cl   s Sr   s Buckingham    Buckingham A     2191.0900    eV        0.000 12.000
                            Buckingham rho  0.34570000    Ang
                            Buckingham C     0.0000000    eV*Ang^6
O    s Ba   s Buckingham    Buckingham A     905.70000    eV        0.000 12.000
                            Buckingham rho  0.39760000    Ang
                            Buckingham C     0.0000000    eV*Ang^6
Cl   s Ba   s Buckingham    Buckingham A     2704.5500    eV        0.000 12.000
                            Buckingham rho  0.35280000    Ang
                            Buckingham C     0.0000000    eV*Ang^6

*  Output for configuration   1                                                *

  Components of energy :

  Interatomic potentials     =           8.19837520 eV
  Monopole - monopole (real) =         -12.90815304 eV
  Monopole - monopole (recip)=         -37.12612752 eV
  Monopole - monopole (total)=         -50.03428056 eV
  Total lattice energy       =         -41.83590536 eV
  Total lattice energy       =           -4036.5253 kJ/(mole unit cells)

  Number of variables =        4

  Maximum number of calculations  =          1000
  Maximum Hessian update interval =            10
  Maximum step size               =   1.000000000
  Maximum parameter tolerance     =   0.000010000
  Maximum function  tolerance     =   0.000010000
  Maximum gradient  tolerance     =   0.001000000
  Maximum gradient  component     =   0.010000000

  Symmetry constrained optimisation

  Symmetry used for second derivatives

  Cell parameters to be optimised using strains

  Newton-Raphson optimiser to be used

  BFGS hessian update to be used

  Lower half triangular hessian to be used

  Start of bulk optimisation :

  ** Hessian calculated **

  **** Optimisation achieved ****

  Final energy =     -42.30697486 eV
  Final Gnorm  =       0.00018925

  Components of energy :

  Interatomic potentials     =           5.55750508 eV
  Monopole - monopole (real) =          77.12050111 eV
  Monopole - monopole (recip)=        -124.98498106 eV
  Monopole - monopole (total)=         -47.86447995 eV
  Total lattice energy       =         -42.30697486 eV
  Total lattice energy       =           -4081.9764 kJ/(mole unit cells)

  Final asymmetric unit coordinates :

   No.  Atomic        x           y           z         Radius
        Label       (Frac)      (Frac)      (Frac)       (Angs)
     1  Ca    c     0.500000    0.500000    0.500000    0.000000
     2  Cl    c     0.691034    0.691034    0.000000    0.000000
     3  Ca    s     0.500000    0.500000    0.500000    0.000000
     4  Cl    s     0.689461    0.689461    0.000000    0.000000

  Final Cartesian lattice vectors (Angstroms) :

        6.604844    0.000000    0.000000
        0.000000    6.604844    0.000000
        0.000000    0.000000    4.585927

  Final cell parameters and derivatives :

       a            6.604844 Angstrom     dE/de1(xx)    -0.000046 eV/strain
       b            6.604844 Angstrom     dE/de2(yy)     0.000000 eV/strain
       c            4.585927 Angstrom     dE/de3(zz)    -0.000083 eV/strain
       alpha       90.000000 Degrees      dE/de4(yz)     0.000000 eV/strain
       beta        90.000000 Degrees      dE/de5(xz)     0.000000 eV/strain
       gamma       90.000000 Degrees      dE/de6(xy)     0.000000 eV/strain

  Primitive cell volume =           200.056297 Angs**3

  Density of cell =      1.842377 g/cm**3

  Non-primitive cell volume =           200.056297 Angs**3

  Final internal derivatives :

   No.  Atomic          a             b             c           Radius
        Label          (eV)          (eV)          (eV)        (eV/Angs)
      1 Ca    c       0.000000      0.000000      0.000000      0.000000
      2 Cl    c      -0.000549      0.000000      0.000000      0.000000
      3 Ca    s       0.000000      0.000000      0.000000      0.000000
      4 Cl    s       0.000513      0.000000      0.000000      0.000000
  Maximum abs         0.000549      0.000000      0.000000      0.000000

  Comparison of initial and final structures :

  Parameter   Initial value   Final value   Difference    Units      Percent
    Volume       175.099417    200.056297    24.956880    Angs**3     14.25
    a              6.439033      6.604844     0.165811    Angstroms    2.58
    b              6.439033      6.604844     0.165811    Angstroms    2.58
    c              4.223217      4.585927     0.362710    Angstroms    8.59
    alpha         90.000000     90.000000     0.000000    Degrees      0.00
    beta          90.000000     90.000000     0.000000    Degrees      0.00
    gamma         90.000000     90.000000     0.000000    Degrees      0.00
      1 x          0.500000      0.500000     0.000000    Fractional   0.00
      1 y          0.500000      0.500000     0.000000    Fractional   0.00
      1 z          0.500000      0.500000     0.000000    Fractional   0.00
      2 x          0.695667      0.691034     0.004633    Fractional   0.67
      2 y          0.695667      0.691034     0.004633    Fractional   0.67
      2 z          0.000000      0.000000     0.000000    Fractional   0.00
      3 x          0.500000      0.500000     0.000000    Fractional   0.00
      3 y          0.500000      0.500000     0.000000    Fractional   0.00
      3 z          0.500000      0.500000     0.000000    Fractional   0.00
      4 x          0.695667      0.689461     0.006206    Fractional   0.89
      4 y          0.695667      0.689461     0.006206    Fractional   0.89
      4 z          0.000000      0.000000     0.000000    Fractional   0.00

  Born effective charge tensors :

  Atom             x           y             z
    1 Ca    x       1.9389     -0.1107     -0.0000
            y      -0.1107      1.9389     -0.0000
            z      -0.0000     -0.0000      2.0444
    2 Cl    x      -0.9695     -0.2082      0.0000
            y      -0.2082     -0.9695      0.0000
            z       0.0000      0.0000     -1.0222

  Elastic Constant Matrix: (Units=GPa)

  Indices      1         2         3         4         5         6
       1     29.2350   23.2839   22.6270    0.0000    0.0000    0.0000
       2     23.2839   29.2350   22.6270   -0.0000   -0.0000    0.0000
       3     22.6270   22.6270   55.1325   -0.0000   -0.0000   -0.0000
       4      0.0000   -0.0000   -0.0000    9.7037   -0.0000    0.0000
       5      0.0000   -0.0000   -0.0000    0.0000    9.7037    0.0000
       6      0.0000   -0.0000   -0.0000    0.0000    0.0000   24.7250

  Elastic Compliance Matrix: (Units=1/GPa)

  Indices      1         2         3         4         5         6
       1    0.098748 -0.069289 -0.012090 -0.000000 -0.000000 -0.000000
       2   -0.069289  0.098748 -0.012090  0.000000  0.000000  0.000000
       3   -0.012090 -0.012090  0.028062  0.000000  0.000000  0.000000
       4   -0.000000  0.000000  0.000000  0.103053  0.000000 -0.000000
       5   -0.000000  0.000000  0.000000 -0.000000  0.103053 -0.000000
       6   -0.000000  0.000000  0.000000 -0.000000 -0.000000  0.040445

  Mechanical properties :

  Convention :                    Reuss         Voigt         Hill
  Bulk  Modulus (GPa)     =      25.89431      27.85312      26.87372
  Shear Modulus (GPa)     =       7.44136      11.83080       9.63608
  Velocity S-wave (km/s)  =       2.00973       2.53407       2.28697
  Velocity P-wave (km/s)  =       4.40910       4.86621       4.64328
  Compressibility (1/GPa) =    0.03861852
  Stress axis :                     x             y             z
  Youngs Moduli (GPa)     =      10.12681      10.12681      35.63555
  Poissons Ratio (x)      =                     0.70168       0.43083
  Poissons Ratio (y)      =       0.70168                     0.43083
  Poissons Ratio (z)      =       0.12243       0.12243

  Piezoelectric Strain Matrix: (Units=C/m**2)

  Indices      1         2         3         4         5         6
       x     0.00000  -0.00000   0.00000   0.00000  -0.00000   0.00000
       y     0.00000  -0.00000  -0.00000  -0.00000  -0.00000   0.00000
       z     0.00000   0.00000   0.00000   0.00000   0.00000  -0.00000

  Piezoelectric Stress Matrix: (Units=10**-11 C/N)

  Indices      1         2         3         4         5         6
       x     0.00000  -0.00000   0.00000   0.00000  -0.00000   0.00000
       y     0.00000  -0.00000  -0.00000  -0.00000  -0.00000   0.00000
       z     0.00000  -0.00000   0.00000   0.00000   0.00000  -0.00000

  Static dielectric constant tensor :

              x         y         z
       x     8.22243  -0.00000  -0.00000
       y    -0.00000   8.22243  -0.00000
       z    -0.00000  -0.00000   3.88976

  High frequency dielectric constant tensor :

              x         y         z
       x     2.10443  -0.00000  -0.00000
       y    -0.00000   2.10443  -0.00000
       z    -0.00000  -0.00000   2.13812

  Static refractive indices :

    1 =    1.97225      2 =    2.86748      3 =    2.86748

  High frequency refractive indices :

    1 =    1.45066      2 =    1.45066      3 =    1.46223

  Time to end of optimisation =       0.0244 seconds

*  Defect calculation for configuration   1 :                                  *

  **** No defects for configuration number    1 ****

  Timing analysis for GULP :

  Task / Subroutine                                          Time (Seconds)
  Calculation of reciprocal space energy and derivatives          0.0006
  Calculation of reciprocal space energy using symmetry           0.0018
  Calculation of real space energy and derivatives                0.0034
  Calculation of real space energy using symmetry                 0.0108
  Symmetry generation of equivalent positions                     0.0008

  Dump file written as Na3OCl.grs

  Job Finished at 18:06.30 30th November   2020