  Job Started  at 17:56.20 11th February   2021

  Number of CPUs =     1

  Total number of configurations input =      1

*  Input for Configuration =   1                                               *

  Formula = O8Cl8Na24

  Number of irreducible atoms/shells =      56

  Total number atoms/shells =      56

  Dimensionality = 3               :  Bulk

  Supercell dimensions :  x =   2  y =   2  z =   2

  Cartesian lattice vectors (Angstroms) :

        9.008000    0.000000    0.000000
        0.000000    9.008000    0.000000
        0.000000    0.000000    9.008000

  Cell parameters (Angstroms/Degrees):

  a =       9.0080    alpha =  90.0000
  b =       9.0080    beta  =  90.0000
  c =       9.0080    gamma =  90.0000

  Initial cell volume =         730.945729 Angs**3

  Temperature of configuration =   0.00     K

  Pressure of configuration =         0.000 GPa

  Fractional coordinates of asymmetric unit :

   No.  Atomic       x           y          z         Charge      Occupancy
        Label      (Frac)      (Frac)     (Frac)        (e)         (Frac)
      1 O     c    0.000000    0.000000    0.000000     0.18300    1.000000
      2 O     c    0.000000 *  0.000000 *  0.500000 *   0.18300    1.000000
      3 O     c    0.000000 *  0.500000 *  0.000000 *   0.18300    1.000000
      4 O     c    0.000000 *  0.500000 *  0.500000 *   0.18300    1.000000
      5 O     c    0.500000 *  0.000000 *  0.000000 *   0.18300    1.000000
      6 O     c    0.500000 *  0.000000 *  0.500000 *   0.18300    1.000000
      7 O     c    0.500000 *  0.500000 *  0.000000 *   0.18300    1.000000
      8 O     c    0.500000 *  0.500000 *  0.500000 *   0.18300    1.000000
      9 Cl    c    0.250000 *  0.250000 *  0.250000 *   1.48500    1.000000
     10 Cl    c    0.250000 *  0.250000 *  0.750000 *   1.48500    1.000000
     11 Cl    c    0.250000 *  0.750000 *  0.250000 *   1.48500    1.000000
     12 Cl    c    0.250000 *  0.750000 *  0.750000 *   1.48500    1.000000
     13 Cl    c    0.750000 *  0.250000 *  0.250000 *   1.48500    1.000000
     14 Cl    c    0.750000 *  0.250000 *  0.750000 *   1.48500    1.000000
     15 Cl    c    0.750000 *  0.750000 *  0.250000 *   1.48500    1.000000
     16 Cl    c    0.750000 *  0.750000 *  0.750000 *   1.48500    1.000000
     17 Na    c    0.250000 *  0.000000 *  0.000000 *   1.00000    1.000000
     18 Na    c    0.250000 *  0.000000 *  0.500000 *   1.00000    1.000000
     19 Na    c    0.250000 *  0.500000 *  0.000000 *   1.00000    1.000000
     20 Na    c    0.250000 *  0.500000 *  0.500000 *   1.00000    1.000000
     21 Na    c    0.750000 *  0.000000 *  0.000000 *   1.00000    1.000000
     22 Na    c    0.750000 *  0.000000 *  0.500000 *   1.00000    1.000000
     23 Na    c    0.750000 *  0.500000 *  0.000000 *   1.00000    1.000000
     24 Na    c    0.750000 *  0.500000 *  0.500000 *   1.00000    1.000000
     25 Na    c    0.000000 *  0.250000 *  0.000000 *   1.00000    1.000000
     26 Na    c    0.000000 *  0.250000 *  0.500000 *   1.00000    1.000000
     27 Na    c    0.000000 *  0.750000 *  0.000000 *   1.00000    1.000000
     28 Na    c    0.000000 *  0.750000 *  0.500000 *   1.00000    1.000000
     29 Na    c    0.500000 *  0.250000 *  0.000000 *   1.00000    1.000000
     30 Na    c    0.500000 *  0.250000 *  0.500000 *   1.00000    1.000000
     31 Na    c    0.500000 *  0.750000 *  0.000000 *   1.00000    1.000000
     32 Na    c    0.500000 *  0.750000 *  0.500000 *   1.00000    1.000000
     33 Na    c    0.000000 *  0.000000 *  0.250000 *   1.00000    1.000000
     34 Na    c    0.000000 *  0.000000 *  0.750000 *   1.00000    1.000000
     35 Na    c    0.000000 *  0.500000 *  0.250000 *   1.00000    1.000000
     36 Na    c    0.000000 *  0.500000 *  0.750000 *   1.00000    1.000000
     37 Na    c    0.500000 *  0.000000 *  0.250000 *   1.00000    1.000000
     38 Na    c    0.500000 *  0.000000 *  0.750000 *   1.00000    1.000000
     39 Na    c    0.500000 *  0.500000 *  0.250000 *   1.00000    1.000000
     40 Na    c    0.500000 *  0.500000 *  0.750000 *   1.00000    1.000000
     41 O     s    0.000000 *  0.000000 *  0.000000 *  -2.18300    1.000000
     42 O     s    0.000000 *  0.000000 *  0.500000 *  -2.18300    1.000000
     43 O     s    0.000000 *  0.500000 *  0.000000 *  -2.18300    1.000000
     44 O     s    0.000000 *  0.500000 *  0.500000 *  -2.18300    1.000000
     45 O     s    0.500000 *  0.000000 *  0.000000 *  -2.18300    1.000000
     46 O     s    0.500000 *  0.000000 *  0.500000 *  -2.18300    1.000000
     47 O     s    0.500000 *  0.500000 *  0.000000 *  -2.18300    1.000000
     48 O     s    0.500000 *  0.500000 *  0.500000 *  -2.18300    1.000000
     49 Cl    s    0.250000 *  0.250000 *  0.250000 *  -2.48500    1.000000
     50 Cl    s    0.250000 *  0.250000 *  0.750000 *  -2.48500    1.000000
     51 Cl    s    0.250000 *  0.750000 *  0.250000 *  -2.48500    1.000000
     52 Cl    s    0.250000 *  0.750000 *  0.750000 *  -2.48500    1.000000
     53 Cl    s    0.750000 *  0.250000 *  0.250000 *  -2.48500    1.000000
     54 Cl    s    0.750000 *  0.250000 *  0.750000 *  -2.48500    1.000000
     55 Cl    s    0.750000 *  0.750000 *  0.250000 *  -2.48500    1.000000
     56 Cl    s    0.750000 *  0.750000 *  0.750000 *  -2.48500    1.000000

*  General input information                                                   *

  Species output for all configurations :

  Species    Type    Atomic    Atomic    Charge       Radii (Angs)     Library
                     Number     Mass       (e)     Cova   Ionic  VDW   Symbol
    Na       Core       11      22.99   1.000000   0.970  0.000  2.300
    O        Core        8      16.00   0.183000   0.730  0.000  1.360
    O        Shell       8       0.00  -2.183000   0.730  0.000  1.360
    Cl       Core       17      35.45   1.485000   0.990  0.000  1.650
    Cl       Shell      17       0.00  -2.485000   0.990  0.000  1.650
    Mg       Core       12      24.31   0.415000   1.100  0.000  0.000
    Mg       Shell      12       0.00   1.585000   1.100  0.000  0.000
    Ca       Core       20      40.08  -1.135000   0.990  0.000  0.000
    Ca       Shell      20       0.00   3.135000   0.990  0.000  0.000
    Sr       Core       38      87.62  -1.251000   1.120  0.000  0.000
    Sr       Shell      38       0.00   3.251000   1.120  0.000  0.000
    Ba       Core       56     137.33  -7.203000   1.340  0.000  0.000
    Ba       Shell      56       0.00   9.203000   1.340  0.000  0.000

  Lattice summation method               =    Ewald          (3-D)
                                         =    Parry          (2-D)
                                         =    Saunders et al (1-D)
  Accuracy factor for lattice sums       =   12.000

  Analytic derivatives to be used

  Time limit = Infinity

  Maximum range for interatomic potentials =    100000.000000 Angstroms

  General interatomic potentials :

Atom  Types   Potential      Parameter       Value         Units   Cutoffs(Ang)
  1     2                                                            Min /  Max
O    c O    s Spring (c-s)  Spring k 2       593.71600    eV*Ang^-2 0.000  0.800
                            Spring k 4       0.0000000    eV*Ang^-4
Cl   c Cl   s Spring (c-s)  Spring k 2       29.380000    eV*Ang^-2 0.000  0.800
                            Spring k 4       0.0000000    eV*Ang^-4
Mg   c Mg   s Spring (c-s)  Spring k 2       361.60000    eV*Ang^-2 0.000  0.800
                            Spring k 4       0.0000000    eV*Ang^-4
Ca   c Ca   s Spring (c-s)  Spring k 2       110.20000    eV*Ang^-2 0.000  0.800
                            Spring k 4       0.0000000    eV*Ang^-4
Sr   c Sr   s Spring (c-s)  Spring k 2       71.700000    eV*Ang^-2 0.000  0.800
                            Spring k 4       0.0000000    eV*Ang^-4
Ba   c Ba   s Spring (c-s)  Spring k 2       495.20000    eV*Ang^-2 0.000  0.800
                            Spring k 4       0.0000000    eV*Ang^-4
Na   c Na   c Buckingham    Buckingham A     1788.1900    eV        0.000 12.000
                            Buckingham rho  0.15900000    Ang
                            Buckingham C     0.0000000    eV*Ang^6
Na   c O    s Buckingham    Buckingham A     588.38000    eV        0.000 12.000
                            Buckingham rho  0.33800000    Ang
                            Buckingham C     0.0000000    eV*Ang^6
Na   c Cl   s Buckingham    Buckingham A     1170.4100    eV        0.000 12.000
                            Buckingham rho  0.31500000    Ang
                            Buckingham C     0.0000000    eV*Ang^6
O    s O    s Buckingham    Buckingham A     22764.300    eV        0.000 12.000
                            Buckingham rho  0.14900000    Ang
                            Buckingham C     13.190000    eV*Ang^6
O    s Cl   s Buckingham    Buckingham A     8286.9100    eV        0.000 12.000
                            Buckingham rho  0.25900000    Ang
                            Buckingham C     62.200000    eV*Ang^6
Cl   s Cl   s Buckingham    Buckingham A     1227.2000    eV        0.000 12.000
                            Buckingham rho  0.32100000    Ang
                            Buckingham C     14.530000    eV*Ang^6
O    s Mg   s Buckingham    Buckingham A     1428.5000    eV        0.000 12.000
                            Buckingham rho  0.29450000    Ang
                            Buckingham C     0.0000000    eV*Ang^6
Mg   s Cl   s Buckingham    Buckingham A     4914.5400    eV        0.000 12.000
                            Buckingham rho  0.25700000    Ang
                            Buckingham C     0.0000000    eV*Ang^6
O    s Ca   s Buckingham    Buckingham A     1090.4000    eV        0.000 12.000
                            Buckingham rho  0.34370000    Ang
                            Buckingham C     0.0000000    eV*Ang^6
Cl   s Ca   s Buckingham    Buckingham A     2302.0000    eV        0.000 12.000
                            Buckingham rho  0.34020000    Ang
                            Buckingham C     0.0000000    eV*Ang^6
O    s Sr   s Buckingham    Buckingham A     959.10000    eV        0.000 12.000
                            Buckingham rho  0.37210000    Ang
                            Buckingham C     0.0000000    eV*Ang^6
Cl   s Sr   s Buckingham    Buckingham A     2191.0900    eV        0.000 12.000
                            Buckingham rho  0.34570000    Ang
                            Buckingham C     0.0000000    eV*Ang^6
O    s Ba   s Buckingham    Buckingham A     905.70000    eV        0.000 12.000
                            Buckingham rho  0.39760000    Ang
                            Buckingham C     0.0000000    eV*Ang^6
Cl   s Ba   s Buckingham    Buckingham A     2704.5500    eV        0.000 12.000
                            Buckingham rho  0.35280000    Ang
                            Buckingham C     0.0000000    eV*Ang^6

*  Output for configuration   1                                                *

  Components of energy :

  Interatomic potentials     =          39.54523045 eV
  Monopole - monopole (real) =        -173.49412932 eV
[...]

  Parameter   Initial value   Final value   Difference    Units      Percent
      1 x          4.405902      4.405902     0.000000    Cartesian    0.00
      1 y          4.405902      4.405902     0.000000    Cartesian    0.00
      1 z          6.608853      6.845157     0.236303    Cartesian    3.58
      2 x          6.608853      6.330253    -0.278600    Cartesian   -4.22
      2 y          6.608853      6.521452    -0.087401    Cartesian   -1.32
      2 z          6.608853      6.521452    -0.087401    Cartesian   -1.32
      3 x          4.405902      4.405902     0.000000    Cartesian    0.00
      3 y          4.405902      4.405902     0.000000    Cartesian    0.00
      3 z          8.811805      8.942568     0.130763    Cartesian    1.48
      4 x          0.000000     -0.104941    -0.104941    Cartesian *******
      4 y          4.405902      4.405902     0.000000    Cartesian    0.00
      4 z          4.405902      4.405902     0.000000    Cartesian    0.00
      5 x          8.811805      8.502353    -0.309452    Cartesian   -3.51
      5 y          2.202951      2.299337     0.096386    Cartesian    4.38
      5 z          4.405902      4.405902     0.000000    Cartesian    0.00
      6 x          2.202951      2.208081     0.005130    Cartesian    0.23
      6 y          0.000000     -0.170574    -0.170574    Cartesian *******
      6 z          4.405902      4.405902     0.000000    Cartesian    0.00
      7 x          4.405902      4.405902     0.000000    Cartesian    0.00
      7 y          2.202951      2.177435    -0.025516    Cartesian   -1.16
      7 z          8.811805      8.865297     0.053492    Cartesian    0.61
      8 x          8.811805      8.772852    -0.038952    Cartesian   -0.44
      8 y          4.405902      4.405902     0.000000    Cartesian    0.00
      8 z          8.811805      8.773110    -0.038694    Cartesian   -0.44
      9 x          4.405902      4.405902     0.000000    Cartesian    0.00
      9 y          0.000000     -0.026926    -0.026926    Cartesian *******
      9 z          8.811805      8.838730     0.026926    Cartesian    0.31
     10 x          0.000000     -0.047836    -0.047836    Cartesian *******
     10 y          6.608853      6.598064    -0.010789    Cartesian   -0.16
     10 z          8.811805      8.807429    -0.004375    Cartesian   -0.05
     11 x          2.202951      2.206708     0.003757    Cartesian    0.17
     11 y          0.000000     -0.019204    -0.019204    Cartesian *******
     11 z          8.811805      8.831009     0.019204    Cartesian    0.22
     12 x          4.405902      4.405902     0.000000    Cartesian    0.00
     12 y          4.405902      4.405902     0.000000    Cartesian    0.00
     12 z         11.014756     11.091506     0.076750    Cartesian    0.70
     13 x         -2.202951     -2.203854    -0.000903    Cartesian    0.04
     13 y          4.405902      4.405902     0.000000    Cartesian    0.00
     13 z          4.405902      4.405902     0.000000    Cartesian    0.00
     14 x          6.608853      6.617923     0.009069    Cartesian    0.14
     14 y          6.608853      6.616744     0.007891    Cartesian    0.12
     14 z         11.014756     11.027779     0.013023    Cartesian    0.12
     15 x         -2.202951     -2.240655    -0.037704    Cartesian    1.71
     15 y          2.202951      2.130833    -0.072118    Cartesian   -3.27
     15 z          6.608853      6.680972     0.072118    Cartesian    1.09
     16 x          8.811805      8.797476    -0.014328    Cartesian   -0.16
     16 y          8.811805      8.797205    -0.014600    Cartesian   -0.17
     16 z          0.000000      0.014600     0.014600    Cartesian *******
     17 x         -2.202951     -2.176754     0.026197    Cartesian   -1.19
     17 y          8.811805      8.623829    -0.187975    Cartesian   -2.13
     17 z          4.405902      4.405902     0.000000    Cartesian    0.00
     18 x          0.000000     -0.089273    -0.089273    Cartesian *******
     18 y         -2.202951     -2.191729     0.011222    Cartesian   -0.51
     18 z          4.405902      4.405902     0.000000    Cartesian    0.00
     19 x          4.405902      4.405902     0.000000    Cartesian    0.00
     19 y          0.000000     -0.021725    -0.021725    Cartesian *******
     19 z         11.014756     11.035036     0.020281    Cartesian    0.18
     20 x          4.405902      4.405902     0.000000    Cartesian    0.00
     20 y          4.405902      4.405902     0.000000    Cartesian    0.00
     20 z         13.217707     13.252690     0.034983    Cartesian    0.26
     21 x         13.217707     13.241008     0.023301    Cartesian    0.18
     21 y          4.405902      4.405902     0.000000    Cartesian    0.00
     21 z          4.405902      4.405902     0.000000    Cartesian    0.00
     22 x         -4.405902     -4.449968    -0.044066    Cartesian    1.00
     22 y          2.202951      2.211348     0.008397    Cartesian    0.38
     22 z          4.405902      4.405902     0.000000    Cartesian    0.00
     23 x          6.608853      6.620251     0.011398    Cartesian    0.17
     23 y         -4.405902     -4.414102    -0.008200    Cartesian    0.19
     23 z          4.405902      4.405902     0.000000    Cartesian    0.00
     24 x          0.000000     -0.000122    -0.000122    Cartesian *******
     24 y         -2.202951     -2.198770     0.004181    Cartesian   -0.19
     24 z          8.811805      8.803186    -0.008619    Cartesian   -0.10
     25 x         -2.202951     -2.205904    -0.002953    Cartesian    0.13
     25 y          8.811805      8.809372    -0.002433    Cartesian   -0.03
     25 z          0.000000      0.002433     0.002433    Cartesian *******
     26 x          4.405902      4.405902     0.000000    Cartesian    0.00
     26 y          6.608853      6.613587     0.004734    Cartesian    0.07
     26 z         13.217707     13.253024     0.035317    Cartesian    0.27
     27 x         11.014756     10.990403    -0.024353    Cartesian   -0.22
     27 y          6.608853      6.610079     0.001225    Cartesian    0.02
     27 z         11.014756     11.018329     0.003573    Cartesian    0.03
     28 x          2.202951      2.202885    -0.000067    Cartesian   -0.00
     28 y         -2.202951     -2.204977    -0.002026    Cartesian    0.09
     28 z         -2.202951     -2.204977    -0.002026    Cartesian    0.09
     29 x         -4.405902     -4.392227     0.013675    Cartesian   -0.31
     29 y          4.405902      4.405902     0.000000    Cartesian    0.00
     29 z          8.811805      8.796205    -0.015599    Cartesian   -0.18
     30 x          0.000000     -0.008830    -0.008830    Cartesian *******
     30 y          4.405902      4.405902     0.000000    Cartesian    0.00
     30 z         13.217707     13.214941    -0.002766    Cartesian   -0.02
     31 x          4.405902      4.405902     0.000000    Cartesian    0.00
     31 y          0.000000     -0.003821    -0.003821    Cartesian *******
     31 z         13.217707     13.229628     0.011921    Cartesian    0.09
     32 x         -4.405902     -4.386982     0.018920    Cartesian   -0.43
     32 y          2.202951      2.200614    -0.002337    Cartesian   -0.11
     32 z          8.811805      8.801621    -0.010184    Cartesian   -0.12
     33 x          6.608853      6.611223     0.002369    Cartesian    0.04
     33 y         -4.405902     -4.412302    -0.006399    Cartesian    0.15
     33 z          0.000000     -0.001884    -0.001884    Cartesian *******
     34 x          0.000000     -0.001678    -0.001678    Cartesian *******
     34 y          6.608853      6.609755     0.000901    Cartesian    0.01
     34 z         -4.405902     -4.397113     0.008789    Cartesian   -0.20
     35 x         -4.405902     -4.409464    -0.003562    Cartesian    0.08
     35 y          0.000000     -0.009538    -0.009538    Cartesian *******
     35 z          8.811805      8.821343     0.009538    Cartesian    0.11
     36 x          0.000000      0.000689     0.000689    Cartesian *******
     36 y          0.000000     -0.001361    -0.001361    Cartesian *******
     36 z         13.217707     13.216811    -0.000896    Cartesian   -0.01
     37 x         -4.405902     -4.355110     0.050793    Cartesian   -1.15
     37 y         11.014756     10.999264    -0.015492    Cartesian   -0.14
     37 z          4.405902      4.405902     0.000000    Cartesian    0.00
     38 x         -2.202951     -2.207243    -0.004292    Cartesian    0.19
     38 y         -4.405902     -4.431947    -0.026045    Cartesian    0.59
     38 z          4.405902      4.405902     0.000000    Cartesian    0.00
     39 x          4.405902      4.405902     0.000000    Cartesian    0.00
     39 y         -2.202951     -2.206287    -0.003336    Cartesian    0.15
     39 z         13.217707     13.227142     0.009436    Cartesian    0.07
     40 x          4.405902      4.405902     0.000000    Cartesian    0.00
     40 y          4.405902      4.405902     0.000000    Cartesian    0.00
     40 z         15.420658     15.434391     0.013733    Cartesian    0.09
     41 x         -6.608853     -6.626336    -0.017482    Cartesian    0.26
     41 y          4.405902      4.405902     0.000000    Cartesian    0.00
     41 z          4.405902      4.405902     0.000000    Cartesian    0.00
     42 x          6.608853      6.612328     0.003474    Cartesian    0.05
     42 y          6.608853      6.610433     0.001579    Cartesian    0.02
     42 z         15.420658     15.424051     0.003393    Cartesian    0.02
     43 x         15.420658     15.425315     0.004657    Cartesian    0.03
     43 y          6.608853      6.606135    -0.002719    Cartesian   -0.04
     43 z          6.608853      6.606135    -0.002719    Cartesian   -0.04
     44 x         11.014756     11.004158    -0.010598    Cartesian   -0.10
     44 y         -2.202951     -2.200608     0.002344    Cartesian   -0.11
     44 z         11.014756     11.012412    -0.002344    Cartesian   -0.02
     45 x         13.217707     13.227640     0.009934    Cartesian    0.08
     45 y         -2.202951     -2.203847    -0.000896    Cartesian    0.04
     45 z          0.000000     -0.000937    -0.000937    Cartesian *******
     46 x         -2.202951     -2.202386     0.000565    Cartesian   -0.03
     46 y         -4.405902     -4.402756     0.003146    Cartesian   -0.07
     46 z          0.000000     -0.000373    -0.000373    Cartesian *******
     47 x          0.000000     -0.002960    -0.002960    Cartesian *******
     47 y         -2.202951     -2.202798     0.000153    Cartesian   -0.01
     47 z         -4.405902     -4.402435     0.003468    Cartesian   -0.08
     48 x         -6.608853     -6.602016     0.006837    Cartesian   -0.10
     48 y          0.000000     -0.019726    -0.019726    Cartesian *******
     48 z          4.405902      4.405902     0.000000    Cartesian    0.00
     49 x          8.811805      8.811131    -0.000674    Cartesian   -0.01
     49 y         -6.608853     -6.608947    -0.000094    Cartesian    0.00
     49 z          4.405902      4.405902     0.000000    Cartesian    0.00
     50 x          4.405902      4.405902     0.000000    Cartesian    0.00
     50 y          8.811805      8.820873     0.009069    Cartesian    0.10
     50 z         15.420658     15.426800     0.006142    Cartesian    0.04
     51 x          6.608853      6.309343    -0.299510    Cartesian   -4.53
     51 y          6.608853      6.516637    -0.092217    Cartesian   -1.40
     51 z          6.608853      6.516637    -0.092217    Cartesian   -1.40
     52 x          4.405902      4.405902     0.000000    Cartesian    0.00
     52 y          4.405902      4.405902     0.000000    Cartesian    0.00
     52 z          8.811805      8.942482     0.130677    Cartesian    1.48
     53 x          0.000000     -0.105121    -0.105121    Cartesian *******
     53 y          4.405902      4.405902     0.000000    Cartesian    0.00
     53 z          4.405902      4.405902     0.000000    Cartesian    0.00
     54 x          8.811805      8.772819    -0.038986    Cartesian   -0.44
     54 y          4.405902      4.405902     0.000000    Cartesian    0.00
     54 z          8.811805      8.773182    -0.038622    Cartesian   -0.44
     55 x          4.405902      4.405902     0.000000    Cartesian    0.00
     55 y          0.000000     -0.026937    -0.026937    Cartesian *******
     55 z          8.811805      8.838741     0.026937    Cartesian    0.31
     56 x          6.608853      6.617279     0.008426    Cartesian    0.13
     56 y          6.608853      6.615432     0.006578    Cartesian    0.10
     56 z         11.014756     11.026147     0.011391    Cartesian    0.10
     57 x         -2.202951     -2.248733    -0.045782    Cartesian    2.08
     57 y          2.202951      2.118113    -0.084838    Cartesian   -3.85
     57 z          6.608853      6.693691     0.084838    Cartesian    1.28
     58 x          8.811805      8.797472    -0.014333    Cartesian   -0.16
     58 y          8.811805      8.797200    -0.014604    Cartesian   -0.17
     58 z          0.000000      0.014604     0.014604    Cartesian *******
     59 x          4.405902      4.405902     0.000000    Cartesian    0.00
     59 y          4.405902      4.405902     0.000000    Cartesian    0.00
     59 z         13.217707     13.252655     0.034948    Cartesian    0.26
     60 x         13.217707     13.241055     0.023348    Cartesian    0.18
     60 y          4.405902      4.405902     0.000000    Cartesian    0.00
     60 z          4.405902      4.405902     0.000000    Cartesian    0.00
     61 x         11.014756     10.985845    -0.028910    Cartesian   -0.26
     61 y          6.608853      6.610590     0.001737    Cartesian    0.03
     61 z         11.014756     11.019694     0.004938    Cartesian    0.04
     62 x          2.202951      2.203605     0.000654    Cartesian    0.03
     62 y         11.014756     11.016082     0.001327    Cartesian    0.01
     62 z         11.014756     11.016082     0.001327    Cartesian    0.01
     63 x         -4.405902     -4.392244     0.013659    Cartesian   -0.31
     63 y          4.405902      4.405902     0.000000    Cartesian    0.00
     63 z          8.811805      8.796176    -0.015628    Cartesian   -0.18
     64 x          0.000000     -0.008841    -0.008841    Cartesian *******
     64 y          4.405902      4.405902     0.000000    Cartesian    0.00
     64 z         13.217707     13.214955    -0.002752    Cartesian   -0.02
     65 x          4.405902      4.405902     0.000000    Cartesian    0.00
     65 y          0.000000     -0.003824    -0.003824    Cartesian *******
     65 z         13.217707     13.229626     0.011920    Cartesian    0.09
     66 x         -4.405902     -4.409464    -0.003562    Cartesian    0.08
     66 y          0.000000     -0.009548    -0.009548    Cartesian *******
     66 z          8.811805      8.821353     0.009548    Cartesian    0.11
     67 x          0.000000      0.000691     0.000691    Cartesian *******
     67 y          0.000000     -0.001361    -0.001361    Cartesian *******
     67 z         13.217707     13.216813    -0.000894    Cartesian   -0.01
     68 x          6.608853      6.612086     0.003232    Cartesian    0.05
     68 y          6.608853      6.610419     0.001565    Cartesian    0.02
     68 z         15.420658     15.423913     0.003255    Cartesian    0.02
     69 x         15.420658     15.424631     0.003973    Cartesian    0.03
     69 y          6.608853      6.604852    -0.004001    Cartesian   -0.06
     69 z          6.608853      6.604852    -0.004001    Cartesian   -0.06
     70 x         11.014756     11.002846    -0.011910    Cartesian   -0.11
     70 y         -2.202951     -2.200815     0.002136    Cartesian   -0.10
     70 z         11.014756     11.012620    -0.002136    Cartesian   -0.02

  Time to end of optimisation  =        2.8072 seconds

  Timing analysis for GULP :

  Task / Subroutine                                          Time (Seconds)
  Calculation of reciprocal space energy and derivatives          0.0139
  Calculation of real space energy and derivatives                0.1379
  Calculation for region 1 energy and derivatives (2-b)           1.8656
  Calculation for region 2a energy                                0.6869
  Calculation and manipulation of Hessian matrix                  0.0589
  Calculation of matrix inversion                                 0.0025
  Symmetry generation of equivalent positions                     0.0011

  Dump file written as Na3OCl.grs

  Job Finished at 17:56.23 11th February   2021