  Job Started  at 18:14.14  3rd December   2020

  Number of CPUs =     1

  Total number of configurations input =      1

*  Input for Configuration =   1                                               *

  Formula = ClONa3

  Number of irreducible atoms/shells =       5

  Total number atoms/shells =       7

  Dimensionality = 3               :  Bulk

  Symmetry :

  Crystal family                   :  Cubic
  Crystal class  (Groth - 1921)    :  Cubic Hexakisoctahedral

  Space group (centrosymmetric)    :  P M 3 M

  Patterson group                  :  P m -3 m

  Cartesian lattice vectors (Angstroms) :

        4.504000    0.000000    0.000000
        0.000000    4.504000    0.000000
        0.000000    0.000000    4.504000

  Cell parameters (Angstroms/Degrees):

  a =       4.5040    alpha =  90.0000
  b =       4.5040    beta  =  90.0000
  c =       4.5040    gamma =  90.0000

  Initial cell volume =          91.368216 Angs**3

  Temperature of configuration =   0.00     K

  Pressure of configuration =         0.000 GPa

  Fractional coordinates of asymmetric unit :

   No.  Atomic       x           y          z         Charge      Occupancy
        Label      (Frac)      (Frac)     (Frac)        (e)         (Frac)
      1 Cl    c    0.000000    0.000000    0.000000     1.48500    1.000000
      2 O     c    0.500000    0.500000    0.500000     0.18300    1.000000
      3 Na    c    0.500000    0.500000    0.000000     1.00000    1.000000
      4 Cl    s    0.000000    0.000000    0.000000    -2.48500    1.000000
      5 O     s    0.500000    0.500000    0.500000    -2.18300    1.000000

  Constraints :

  Constraint no.      Unconstrained     Constrained    Coefficient    Offset
                         Variable         Variable
           1              Strain 1        Strain 2       1.00000      0.0000
           2              Strain 1        Strain 3       1.00000      0.0000

*  General input information                                                   *

  Species output for all configurations :

  Species    Type    Atomic    Atomic    Charge       Radii (Angs)     Library
                     Number     Mass       (e)     Cova   Ionic  VDW   Symbol
    Na       Core       11      22.99   1.000000   0.970  0.000  2.300
    O        Core        8      16.00   0.183000   0.730  0.000  1.360
    O        Shell       8       0.00  -2.183000   0.730  0.000  0.000
    Cl       Core       17      35.45   1.485000   0.990  0.000  1.650
    Cl       Shell      17       0.00  -2.485000   0.990  0.000  0.000
    Mg       Core       12      24.31   0.415000   1.100  0.000  0.000
    Mg       Shell      12       0.00   1.585000   1.100  0.000  0.000
    Ca       Core       20      40.08  -1.135000   0.990  0.000  0.000
    Ca       Shell      20       0.00   3.135000   0.990  0.000  0.000
    Sr       Core       38      87.62  -1.251000   1.120  0.000  0.000
    Sr       Shell      38       0.00   3.251000   1.120  0.000  0.000
    Ba       Core       56     137.33  -7.203000   1.340  0.000  0.000
    Ba       Shell      56       0.00   9.203000   1.340  0.000  0.000

  Lattice summation method               =    Ewald          (3-D)
                                         =    Parry          (2-D)
                                         =    Saunders et al (1-D)
  Accuracy factor for lattice sums       =   12.000

  Analytic derivatives to be used

  Time limit = Infinity

  Maximum range for interatomic potentials =    100000.000000 Angstroms

  General interatomic potentials :

Atom  Types   Potential      Parameter       Value         Units   Cutoffs(Ang)
  1     2                                                            Min /  Max
O    c O    s Spring (c-s)  Spring k 2       593.71600    eV*Ang^-2 0.000  0.800
                            Spring k 4       0.0000000    eV*Ang^-4
Cl   c Cl   s Spring (c-s)  Spring k 2       29.380000    eV*Ang^-2 0.000  0.800
                            Spring k 4       0.0000000    eV*Ang^-4
Mg   c Mg   s Spring (c-s)  Spring k 2       361.60000    eV*Ang^-2 0.000  0.800
                            Spring k 4       0.0000000    eV*Ang^-4
Ca   c Ca   s Spring (c-s)  Spring k 2       110.20000    eV*Ang^-2 0.000  0.800
                            Spring k 4       0.0000000    eV*Ang^-4
Sr   c Sr   s Spring (c-s)  Spring k 2       71.700000    eV*Ang^-2 0.000  0.800
                            Spring k 4       0.0000000    eV*Ang^-4
Ba   c Ba   s Spring (c-s)  Spring k 2       495.20000    eV*Ang^-2 0.000  0.800
                            Spring k 4       0.0000000    eV*Ang^-4
Na   c Na   c Buckingham    Buckingham A     1788.1900    eV        0.000 12.000
                            Buckingham rho  0.15900000    Ang
                            Buckingham C     0.0000000    eV*Ang^6
Na   c O    s Buckingham    Buckingham A     1226.8400    eV        0.000 12.000
                            Buckingham rho  0.30700000    Ang
                            Buckingham C     0.0000000    eV*Ang^6
Na   c Cl   s Buckingham    Buckingham A     2314.7000    eV        0.000 12.000
                            Buckingham rho  0.29000000    Ang
                            Buckingham C     0.0000000    eV*Ang^6
O    s O    s Buckingham    Buckingham A     22764.300    eV        0.000 12.000
                            Buckingham rho  0.14900000    Ang
                            Buckingham C     13.190000    eV*Ang^6
O    s Cl   s Buckingham    Buckingham A     8286.9100    eV        0.000 12.000
                            Buckingham rho  0.25900000    Ang
                            Buckingham C     62.200000    eV*Ang^6
Cl   s Cl   s Buckingham    Buckingham A     1227.2000    eV        0.000 12.000
                            Buckingham rho  0.32100000    Ang
                            Buckingham C     14.530000    eV*Ang^6
O    s Mg   s Buckingham    Buckingham A     1428.5000    eV        0.000 12.000
                            Buckingham rho  0.29450000    Ang
                            Buckingham C     0.0000000    eV*Ang^6
Mg   s Cl   s Buckingham    Buckingham A     4914.5400    eV        0.000 12.000
                            Buckingham rho  0.25700000    Ang
                            Buckingham C     0.0000000    eV*Ang^6
O    s Ca   s Buckingham    Buckingham A     1090.4000    eV        0.000 12.000
                            Buckingham rho  0.34370000    Ang
                            Buckingham C     0.0000000    eV*Ang^6
Cl   s Ca   s Buckingham    Buckingham A     2302.0000    eV        0.000 12.000
                            Buckingham rho  0.34020000    Ang
                            Buckingham C     0.0000000    eV*Ang^6
O    s Sr   s Buckingham    Buckingham A     959.10000    eV        0.000 12.000
                            Buckingham rho  0.37210000    Ang
                            Buckingham C     0.0000000    eV*Ang^6
Cl   s Sr   s Buckingham    Buckingham A     2191.0900    eV        0.000 12.000
                            Buckingham rho  0.34570000    Ang
                            Buckingham C     0.0000000    eV*Ang^6
O    s Ba   s Buckingham    Buckingham A     905.70000    eV        0.000 12.000
                            Buckingham rho  0.39760000    Ang
                            Buckingham C     0.0000000    eV*Ang^6
Cl   s Ba   s Buckingham    Buckingham A     2704.5500    eV        0.000 12.000
                            Buckingham rho  0.35280000    Ang
                            Buckingham C     0.0000000    eV*Ang^6

*  Output for configuration   1                                                *

  Components of energy :

  Interatomic potentials     =           5.13022605 eV
  Monopole - monopole (real) =         -10.03624526 eV
  Monopole - monopole (recip)=         -29.53581274 eV
  Monopole - monopole (total)=         -39.57205800 eV
  Total lattice energy       =         -34.44183194 eV
  Total lattice energy       =           -3323.1103 kJ/(mole unit cells)

  Number of variables =        1

  Maximum number of calculations  =          1000
  Maximum Hessian update interval =            10
  Maximum step size               =   1.000000000
  Maximum parameter tolerance     =   0.000010000
  Maximum function  tolerance     =   0.000010000
  Maximum gradient  tolerance     =   0.001000000
  Maximum gradient  component     =   0.010000000

  Symmetry constrained optimisation

  Symmetry used for second derivatives

  Cell parameters to be optimised using strains

  Newton-Raphson optimiser to be used

  BFGS hessian update to be used

  Lower half triangular hessian to be used

  Start of bulk optimisation :

  ** Hessian calculated **

  **** Optimisation achieved ****

  Final energy =     -34.44191447 eV
  Final Gnorm  =       0.00000000

  Components of energy :

  Interatomic potentials     =           5.09689708 eV
  Monopole - monopole (real) =         -10.02781331 eV
  Monopole - monopole (recip)=         -29.51099824 eV
  Monopole - monopole (total)=         -39.53881155 eV
  Total lattice energy       =         -34.44191447 eV
  Total lattice energy       =           -3323.1183 kJ/(mole unit cells)

  Final asymmetric unit coordinates :

   No.  Atomic        x           y           z         Radius
        Label       (Frac)      (Frac)      (Frac)       (Angs)
     1  Cl    c     0.000000    0.000000    0.000000    0.000000
     2  O     c     0.500000    0.500000    0.500000    0.000000
     3  Na    c     0.500000    0.500000    0.000000    0.000000
     4  Cl    s     0.000000    0.000000    0.000000    0.000000
     5  O     s     0.500000    0.500000    0.500000    0.000000

  Final Cartesian lattice vectors (Angstroms) :

        4.507787    0.000000    0.000000
        0.000000    4.507787    0.000000
        0.000000    0.000000    4.507787

  Final cell parameters and derivatives :

       a            4.507787 Angstrom     dE/de1(xx)     0.000000 eV/strain
       b            4.507787 Angstrom     dE/de2(yy)     0.000000 eV/strain
       c            4.507787 Angstrom     dE/de3(zz)     0.000000 eV/strain
       alpha       90.000000 Degrees      dE/de4(yz)     0.000000 eV/strain
       beta        90.000000 Degrees      dE/de5(xz)     0.000000 eV/strain
       gamma       90.000000 Degrees      dE/de6(xy)     0.000000 eV/strain

  Primitive cell volume =            91.598892 Angs**3

  Density of cell =      2.183054 g/cm**3

  Non-primitive cell volume =            91.598892 Angs**3

  Final internal derivatives :

   No.  Atomic          a             b             c           Radius
        Label          (eV)          (eV)          (eV)        (eV/Angs)
      1 Cl    c       0.000000      0.000000      0.000000      0.000000
      2 O     c       0.000000      0.000000      0.000000      0.000000
      3 Na    c       0.000000      0.000000      0.000000      0.000000
      4 Cl    s       0.000000      0.000000      0.000000      0.000000
      5 O     s       0.000000      0.000000      0.000000      0.000000
  Maximum abs         0.000000      0.000000      0.000000      0.000000

  Comparison of initial and final structures :

[...]
    329 z          2.253894      2.252659    -0.001235    Cartesian   -0.05
    330 x         -2.253894     -2.246030     0.007863    Cartesian   -0.35
    330 y          2.253894      2.251949    -0.001945    Cartesian   -0.09
    330 z         -6.761681     -6.728405     0.033276    Cartesian   -0.49
    331 x          9.015574      9.067276     0.051701    Cartesian    0.57
    331 y          4.507787      4.540584     0.032796    Cartesian    0.73
    331 z         -4.507787     -4.503772     0.004015    Cartesian   -0.09
    332 x          9.015574      9.064627     0.049053    Cartesian    0.54
    332 y         -4.507787     -4.503355     0.004432    Cartesian   -0.10
    332 z          4.507787      4.538324     0.030537    Cartesian    0.68
    333 x          2.253894      2.253894     0.000000    Cartesian    0.00
    333 y          6.761681      6.746826    -0.014854    Cartesian   -0.22
    333 z         -6.761681     -6.746318     0.015363    Cartesian   -0.23
    334 x          2.253894      2.253894     0.000000    Cartesian    0.00
    334 y         -6.761681     -6.749920     0.011761    Cartesian   -0.17
    334 z          6.761681      6.742908    -0.018773    Cartesian   -0.28
    335 x         11.269468     11.254067    -0.015401    Cartesian   -0.14
    335 y         -2.253894     -2.251415     0.002479    Cartesian   -0.11
    335 z          2.253894      2.256984     0.003091    Cartesian    0.14
    336 x         -2.253894     -2.255642    -0.001749    Cartesian    0.08
    336 y         -2.253894     -2.256084    -0.002191    Cartesian    0.10
    336 z         -6.761681     -6.760031     0.001650    Cartesian   -0.02
    337 x          6.761681      6.764544     0.002863    Cartesian    0.04
    337 y         -6.761681     -6.761005     0.000676    Cartesian   -0.01
    337 z         -2.253894     -2.254961    -0.001067    Cartesian    0.05
    338 x         11.269468     11.252084    -0.017384    Cartesian   -0.15
    338 y          2.253894      2.255624     0.001730    Cartesian    0.08
    338 z         -2.253894     -2.249929     0.003965    Cartesian   -0.18
    339 x          4.507787      4.543548     0.035761    Cartesian    0.79
    339 y          9.015574      9.080644     0.065069    Cartesian    0.72
    339 z         -4.507787     -4.514702    -0.006915    Cartesian    0.15
    340 x          4.507787      4.537993     0.030206    Cartesian    0.67
    340 y         -4.507787     -4.519845    -0.012058    Cartesian    0.27
    340 z          9.015574      9.078111     0.062537    Cartesian    0.69
    341 x          2.253894      2.253894     0.000000    Cartesian    0.00
    341 y         11.269468     11.269471     0.000003    Cartesian    0.00
    341 z          2.253894      2.247670    -0.006224    Cartesian   -0.28
    342 x          2.253894      2.253894     0.000000    Cartesian    0.00
    342 y          2.253894      2.246627    -0.007266    Cartesian   -0.32
    342 z         11.269468     11.266879    -0.002589    Cartesian   -0.02
    343 x         11.269468     11.266735    -0.002733    Cartesian   -0.02
    343 y         -2.253894     -2.253111     0.000782    Cartesian   -0.03
    343 z         -2.253894     -2.250417     0.003477    Cartesian   -0.15
    344 x          9.015574      9.057781     0.042206    Cartesian    0.47
    344 y         -4.507787     -4.510269    -0.002482    Cartesian    0.06
    344 z         -4.507787     -4.506798     0.000989    Cartesian   -0.02
    345 x          4.507787      4.501088    -0.006699    Cartesian   -0.15
    345 y          0.000000      0.015541     0.015541    Cartesian    0.00
    345 z         -9.015574     -9.047987    -0.032412    Cartesian    0.36
    346 x          4.507787      4.502152    -0.005635    Cartesian   -0.12
    346 y         -9.015574     -9.056460    -0.040885    Cartesian    0.45
    346 z          0.000000      0.009835     0.009835    Cartesian    0.00
    347 x          9.015574      9.044048     0.028474    Cartesian    0.32
    347 y          0.000000     -0.002165    -0.002165    Cartesian    0.00
    347 z          9.015574      9.023579     0.008004    Cartesian    0.09
    348 x          9.015574      9.035962     0.020388    Cartesian    0.23
    348 y          9.015574      9.046395     0.030821    Cartesian    0.34
    348 z          0.000000     -0.003855    -0.003855    Cartesian    0.00
    349 x          6.761681      6.763958     0.002278    Cartesian    0.03
    349 y          6.761681      6.765037     0.003356    Cartesian    0.05
    349 z         -6.761681     -6.756929     0.004752    Cartesian   -0.07
    350 x          6.761681      6.766792     0.005111    Cartesian    0.08
    350 y         -6.761681     -6.760391     0.001290    Cartesian   -0.02
    350 z          6.761681      6.765408     0.003727    Cartesian    0.06
    351 x         11.269468     11.272130     0.002662    Cartesian    0.02
    351 y          2.253894      2.254089     0.000196    Cartesian    0.01
    351 z          6.761681      6.770639     0.008958    Cartesian    0.13
    352 x         11.269468     11.266880    -0.002588    Cartesian   -0.02
    352 y          6.761681      6.767103     0.005422    Cartesian    0.08
    352 z          2.253894      2.254068     0.000174    Cartesian    0.01
    353 x          2.253894      2.253894     0.000000    Cartesian    0.00
    353 y         11.269468     11.233899    -0.035569    Cartesian   -0.32
    353 z         -2.253894     -2.257161    -0.003267    Cartesian    0.14
    354 x          2.253894      2.253894     0.000000    Cartesian    0.00
    354 y         -2.253894     -2.255106    -0.001212    Cartesian    0.05
    354 z         11.269468     11.233574    -0.035894    Cartesian   -0.32
    355 x          4.507787      4.503342    -0.004445    Cartesian   -0.10
    355 y          4.507787      4.515446     0.007659    Cartesian    0.17
    355 z         -9.015574     -9.010210     0.005365    Cartesian   -0.06
    356 x          4.507787      4.516283     0.008496    Cartesian    0.19
    356 y         -9.015574     -9.019177    -0.003603    Cartesian    0.04
    356 z          4.507787      4.515597     0.007810    Cartesian    0.17
    357 x          9.015574      9.047904     0.032330    Cartesian    0.36
    357 y          9.015574      9.051743     0.036169    Cartesian    0.40
    357 z          4.507787      4.500689    -0.007098    Cartesian   -0.16
    358 x          9.015574      9.049046     0.033472    Cartesian    0.37
    358 y          4.507787      4.490216    -0.017571    Cartesian   -0.39
    358 z          9.015574      9.049869     0.034294    Cartesian    0.38
    359 x         11.269468     11.264617    -0.004851    Cartesian   -0.04
    359 y         -2.253894     -2.256536    -0.002643    Cartesian    0.12
    359 z          6.761681      6.765837     0.004156    Cartesian    0.06
    360 x         -2.253894     -2.252674     0.001219    Cartesian   -0.05
    360 y         11.269468     11.283093     0.013625    Cartesian    0.12
    360 z          2.253894      2.252010    -0.001884    Cartesian   -0.08
    361 x          2.253894      2.253894     0.000000    Cartesian    0.00
    361 y         -6.761681     -6.759380     0.002301    Cartesian   -0.03
    361 z         -6.761681     -6.750146     0.011535    Cartesian   -0.17
    362 x          6.761681      6.757375    -0.004305    Cartesian   -0.06
    362 y          2.253894      2.253769    -0.000124    Cartesian   -0.01
    362 z         11.269468     11.282219     0.012751    Cartesian    0.11
    363 x         11.269468     11.261360    -0.008108    Cartesian   -0.07
    363 y          6.761681      6.761728     0.000047    Cartesian    0.00
    363 z         -2.253894     -2.263000    -0.009106    Cartesian    0.40
    364 x         13.523362     13.550847     0.027486    Cartesian    0.20
    364 y          0.000000     -0.003788    -0.003788    Cartesian    0.00
    364 z          0.000000     -0.008732    -0.008732    Cartesian    0.00
    365 x          4.507787      4.516185     0.008398    Cartesian    0.19
    365 y          9.015574      9.033957     0.018383    Cartesian    0.20
    365 z          9.015574      9.030212     0.014637    Cartesian    0.16
    366 x          2.253894      2.253894     0.000000    Cartesian    0.00
    366 y          6.761681      6.741184    -0.020497    Cartesian   -0.30
    366 z         11.269468     11.261399    -0.008069    Cartesian   -0.07
    367 x          2.253894      2.253894     0.000000    Cartesian    0.00
    367 y         11.269468     11.261450    -0.008018    Cartesian   -0.07
    367 z          6.761681      6.741355    -0.020326    Cartesian   -0.30
    368 x         -2.253894     -2.254776    -0.000883    Cartesian    0.04
    368 y         11.269468     11.271648     0.002180    Cartesian    0.02
    368 z         -2.253894     -2.251570     0.002324    Cartesian   -0.10
    369 x          6.761681      6.760191    -0.001490    Cartesian   -0.02
    369 y         -2.253894     -2.251194     0.002699    Cartesian   -0.12
    369 z         11.269468     11.270782     0.001314    Cartesian    0.01
    370 x         13.523362     13.570453     0.047091    Cartesian    0.35
    370 y          0.000000     -0.001208    -0.001208    Cartesian    0.00
    370 z          4.507787      4.504897    -0.002890    Cartesian   -0.06
    371 x         13.523362     13.583616     0.060254    Cartesian    0.45
    371 y          4.507787      4.501277    -0.006510    Cartesian   -0.14
    371 z          0.000000      0.002347     0.002347    Cartesian    0.00
    372 x          4.507787      4.520493     0.012706    Cartesian    0.28
    372 y         -4.507787     -4.535472    -0.027685    Cartesian    0.61
    372 z         -9.015574     -9.025929    -0.010355    Cartesian    0.11
    373 x          4.507787      4.520806     0.013019    Cartesian    0.29
    373 y         -9.015574     -9.019361    -0.003786    Cartesian    0.04
    373 z         -4.507787     -4.538787    -0.031000    Cartesian    0.69
    374 x          9.015574      9.051008     0.035434    Cartesian    0.39
    374 y          9.015574      9.033708     0.018134    Cartesian    0.20
    374 z         -4.507787     -4.508377    -0.000590    Cartesian    0.01
    375 x          9.015574      9.046287     0.030713    Cartesian    0.34
    375 y         -4.507787     -4.502152     0.005635    Cartesian   -0.13
    375 z          9.015574      9.037393     0.021819    Cartesian    0.24
    376 x         11.269468     11.286226     0.016758    Cartesian    0.15
    376 y          6.761681      6.762137     0.000456    Cartesian    0.01
    376 z          6.761681      6.753773    -0.007908    Cartesian   -0.12
    377 x         11.269468     11.266370    -0.003098    Cartesian   -0.03
    377 y         -6.761681     -6.752906     0.008775    Cartesian   -0.13
    377 z          2.253894      2.257990     0.004097    Cartesian    0.18
    378 x          6.761681      6.764866     0.003185    Cartesian    0.05
    378 y         -6.761681     -6.762386    -0.000705    Cartesian    0.01
    378 z         -6.761681     -6.763902    -0.002221    Cartesian    0.03
    379 x         11.269468     11.266417    -0.003051    Cartesian   -0.03
    379 y          2.253894      2.253106    -0.000788    Cartesian   -0.03
    379 z         -6.761681     -6.752670     0.009011    Cartesian   -0.13
    380 x         13.523362     13.541216     0.017855    Cartesian    0.13
    380 y          4.507787      4.540630     0.032843    Cartesian    0.73
    380 z          4.507787      4.543210     0.035423    Cartesian    0.79
    381 x          9.015574      9.005247    -0.010327    Cartesian   -0.11
    381 y         -9.015574     -9.064264    -0.048690    Cartesian    0.54
    381 z          0.000000     -0.004634    -0.004634    Cartesian    0.00
    382 x          9.015574      9.013017    -0.002558    Cartesian   -0.03
    382 y          0.000000     -0.007599    -0.007599    Cartesian    0.00
    382 z         -9.015574     -9.064233    -0.048659    Cartesian    0.54
    383 x          2.253894      2.253894     0.000000    Cartesian    0.00
    383 y          2.253894      2.235334    -0.018560    Cartesian   -0.82
    383 z        -11.269468    -11.260059     0.009409    Cartesian   -0.08
    384 x          2.253894      2.253894     0.000000    Cartesian    0.00
    384 y        -11.269468    -11.260374     0.009094    Cartesian   -0.08
    384 z          2.253894      2.232882    -0.021012    Cartesian   -0.93
    385 x         11.269468     11.273726     0.004258    Cartesian    0.04
    385 y         -6.761681     -6.763198    -0.001517    Cartesian    0.02
    385 z         -2.253894     -2.256255    -0.002361    Cartesian    0.10
    386 x         -2.253894     -2.258281    -0.004387    Cartesian    0.19
    386 y         11.269468     11.273196     0.003728    Cartesian    0.03
    386 z          6.761681      6.766835     0.005155    Cartesian    0.08
    387 x          6.761681      6.769305     0.007624    Cartesian    0.11
    387 y          6.761681      6.765968     0.004287    Cartesian    0.06
    387 z         11.269468     11.270937     0.001469    Cartesian    0.01
    388 x         11.269468     11.273072     0.003604    Cartesian    0.03
    388 y         -2.253894     -2.253838     0.000056    Cartesian   -0.00
    388 z         -6.761681     -6.764281    -0.002600    Cartesian    0.04
    389 x         13.523362     13.547066     0.023704    Cartesian    0.18
    389 y          0.000000      0.003120     0.003120    Cartesian    0.00
    389 z         -4.507787     -4.528762    -0.020974    Cartesian    0.47
    390 x         13.523362     13.542450     0.019088    Cartesian    0.14
    390 y         -4.507787     -4.522231    -0.014443    Cartesian    0.32
    390 z          0.000000      0.002673     0.002673    Cartesian    0.00
    391 x          4.507787      4.475297    -0.032490    Cartesian   -0.72
    391 y          0.000000     -0.002007    -0.002007    Cartesian    0.00
    391 z         13.523362     13.592374     0.069013    Cartesian    0.51
    392 x          4.507787      4.479401    -0.028386    Cartesian   -0.63
    392 y         13.523362     13.591755     0.068393    Cartesian    0.51
    392 z          0.000000     -0.002618    -0.002618    Cartesian    0.00
    393 x          9.015574      9.035468     0.019893    Cartesian    0.22
    393 y         -9.015574     -9.049264    -0.033690    Cartesian    0.37
    393 z          4.507787      4.517865     0.010077    Cartesian    0.22
    394 x          9.015574      9.024909     0.009334    Cartesian    0.10
    394 y          4.507787      4.518205     0.010418    Cartesian    0.23
    394 z         -9.015574     -9.053017    -0.037443    Cartesian    0.42
    395 x          2.253894      2.253894     0.000000    Cartesian    0.00
    395 y         -2.253894     -2.252043     0.001850    Cartesian   -0.08
    395 z        -11.269468    -11.276583    -0.007115    Cartesian    0.06
    396 x          2.253894      2.253894     0.000000    Cartesian    0.00
    396 y        -11.269468    -11.280021    -0.010553    Cartesian    0.09
    396 z         -2.253894     -2.246455     0.007439    Cartesian   -0.33
    397 x          2.253894      2.253894     0.000000    Cartesian    0.00
    397 y         11.269468     11.285251     0.015783    Cartesian    0.14
    397 z         -6.761681     -6.743980     0.017701    Cartesian   -0.26
    398 x          2.253894      2.253894     0.000000    Cartesian    0.00
    398 y         -6.761681     -6.744863     0.016818    Cartesian   -0.25
    398 z         11.269468     11.284328     0.014860    Cartesian    0.13

  Time to end of optimisation  =      187.0945 seconds

  Timing analysis for GULP :

  Task / Subroutine                                          Time (Seconds)
  Calculation of reciprocal space energy and derivatives          0.0006
  Calculation of reciprocal space energy using symmetry           0.0009
  Calculation of real space energy and derivatives                0.0035
  Calculation of real space energy using symmetry                 0.0085
  Calculation for region 1 energy and derivatives (2-b)          61.3723
  Calculation for region 2a energy                              119.8688
  Calculation for region 2b energy                                0.0177
  Calculation and manipulation of Hessian matrix                  0.2081
  Calculation of matrix inversion                                 4.9339
  Symmetry generation of equivalent positions                     0.0042

  Dump file written as Na3OCl.grs

  Job Finished at 18:17.34  3rd December   2020