  Job Started  at 18:42.52 26th November   2020

  Number of CPUs =     1

  Total number of configurations input =      1

*  Input for Configuration =   1                                               *

  Formula = ClONa3

  Number of irreducible atoms/shells =       5

  Total number atoms/shells =       7

  Dimensionality = 3               :  Bulk

  Symmetry :

  Crystal family                   :  Cubic
  Crystal class  (Groth - 1921)    :  Cubic Hexakisoctahedral

  Space group (centrosymmetric)    :  P M 3 M

  Patterson group                  :  P m -3 m

  Cartesian lattice vectors (Angstroms) :

        4.504000    0.000000    0.000000
        0.000000    4.504000    0.000000
        0.000000    0.000000    4.504000

  Cell parameters (Angstroms/Degrees):

  a =       4.5040    alpha =  90.0000
  b =       4.5040    beta  =  90.0000
  c =       4.5040    gamma =  90.0000

  Initial cell volume =          91.368216 Angs**3

  Temperature of configuration =   0.00     K

  Pressure of configuration =         0.000 GPa

  Fractional coordinates of asymmetric unit :

   No.  Atomic       x           y          z         Charge      Occupancy
        Label      (Frac)      (Frac)     (Frac)        (e)         (Frac)
      1 Cl    c    0.000000    0.000000    0.000000     1.48500    1.000000
      2 O     c    0.500000    0.500000    0.500000     0.18300    1.000000
      3 Na    c    0.500000    0.500000    0.000000     1.00000    1.000000
      4 Cl    s    0.000000    0.000000    0.000000    -2.48500    1.000000
      5 O     s    0.500000    0.500000    0.500000    -2.18300    1.000000

  Constraints :

  Constraint no.      Unconstrained     Constrained    Coefficient    Offset
                         Variable         Variable
           1              Strain 1        Strain 2       1.00000      0.0000
           2              Strain 1        Strain 3       1.00000      0.0000

*  General input information                                                   *

  Species output for all configurations :

  Species    Type    Atomic    Atomic    Charge       Radii (Angs)     Library
                     Number     Mass       (e)     Cova   Ionic  VDW   Symbol
    Na       Core       11      22.99   1.000000   0.970  0.000  2.300
    O        Core        8      16.00   0.183000   0.730  0.000  1.360
    O        Shell       8       0.00  -2.183000   0.730  0.000  1.360
    Cl       Core       17      35.45   1.485000   0.990  0.000  1.650
    Cl       Shell      17       0.00  -2.485000   0.990  0.000  1.650

  Lattice summation method               =    Ewald          (3-D)
                                         =    Parry          (2-D)
                                         =    Saunders et al (1-D)
  Accuracy factor for lattice sums       =   12.000

  Analytic derivatives to be used

  Time limit = Infinity

  Maximum range for interatomic potentials =    100000.000000 Angstroms

  General interatomic potentials :

Atom  Types   Potential      Parameter       Value         Units   Cutoffs(Ang)
  1     2                                                            Min /  Max
O    c O    s Spring (c-s)  Spring k 2       593.72000    eV*Ang^-2 0.000  0.800
                            Spring k 4       0.0000000    eV*Ang^-4
Cl   c Cl   s Spring (c-s)  Spring k 2       29.380000    eV*Ang^-2 0.000  0.800
                            Spring k 4       0.0000000    eV*Ang^-4
Na   c Na   c Buckingham    Buckingham A     1788.1900    eV        0.000 12.000
                            Buckingham rho  0.15900000    Ang
                            Buckingham C     0.0000000    eV*Ang^6
Na   c O    s Buckingham    Buckingham A     1226.8400    eV        0.000 12.000
                            Buckingham rho  0.30700000    Ang
                            Buckingham C     0.0000000    eV*Ang^6
Na   c Cl   s Buckingham    Buckingham A     2314.7000    eV        0.000 12.000
                            Buckingham rho  0.29000000    Ang
                            Buckingham C     0.0000000    eV*Ang^6
O    s O    s Buckingham    Buckingham A     22764.300    eV        0.000 12.000
                            Buckingham rho  0.14900000    Ang
                            Buckingham C     13.190000    eV*Ang^6
O    s Cl   s Buckingham    Buckingham A     8286.9100    eV        0.000 12.000
                            Buckingham rho  0.25900000    Ang
                            Buckingham C     62.200000    eV*Ang^6
Cl   s Cl   s Buckingham    Buckingham A     1227.2000    eV        0.000 12.000
                            Buckingham rho  0.32100000    Ang
                            Buckingham C     14.530000    eV*Ang^6

*  Output for configuration   1                                                *

  Components of energy :

  Interatomic potentials     =           5.13022605 eV
  Monopole - monopole (real) =         -10.03624526 eV
  Monopole - monopole (recip)=         -29.53581274 eV
  Monopole - monopole (total)=         -39.57205800 eV
  Total lattice energy       =         -34.44183194 eV
  Total lattice energy       =           -3323.1103 kJ/(mole unit cells)

  Number of variables =        1

  Maximum number of calculations  =          1000
  Maximum Hessian update interval =            10
  Maximum step size               =   1.000000000
  Maximum parameter tolerance     =   0.000010000
  Maximum function  tolerance     =   0.000010000
  Maximum gradient  tolerance     =   0.001000000
  Maximum gradient  component     =   0.010000000

  Symmetry constrained optimisation

  Symmetry used for second derivatives

  Cell parameters to be optimised using strains

  Newton-Raphson optimiser to be used

  BFGS hessian update to be used

  Lower half triangular hessian to be used

  Start of bulk optimisation :

  ** Hessian calculated **

  **** Optimisation achieved ****

  Final energy =     -34.44191447 eV
  Final Gnorm  =       0.00000000

  Components of energy :

  Interatomic potentials     =           5.09689708 eV
  Monopole - monopole (real) =         -10.02781331 eV
  Monopole - monopole (recip)=         -29.51099824 eV
  Monopole - monopole (total)=         -39.53881155 eV
  Total lattice energy       =         -34.44191447 eV
  Total lattice energy       =           -3323.1183 kJ/(mole unit cells)

  Final asymmetric unit coordinates :

   No.  Atomic        x           y           z         Radius
        Label       (Frac)      (Frac)      (Frac)       (Angs)
     1  Cl    c     0.000000    0.000000    0.000000    0.000000
     2  O     c     0.500000    0.500000    0.500000    0.000000
     3  Na    c     0.500000    0.500000    0.000000    0.000000
     4  Cl    s     0.000000    0.000000    0.000000    0.000000
     5  O     s     0.500000    0.500000    0.500000    0.000000

  Final Cartesian lattice vectors (Angstroms) :

        4.507787    0.000000    0.000000
        0.000000    4.507787    0.000000
        0.000000    0.000000    4.507787

  Final cell parameters and derivatives :

       a            4.507787 Angstrom     dE/de1(xx)     0.000000 eV/strain
       b            4.507787 Angstrom     dE/de2(yy)     0.000000 eV/strain
       c            4.507787 Angstrom     dE/de3(zz)     0.000000 eV/strain
       alpha       90.000000 Degrees      dE/de4(yz)     0.000000 eV/strain
       beta        90.000000 Degrees      dE/de5(xz)     0.000000 eV/strain
       gamma       90.000000 Degrees      dE/de6(xy)     0.000000 eV/strain

  Primitive cell volume =            91.598892 Angs**3

  Density of cell =      2.183054 g/cm**3

  Non-primitive cell volume =            91.598892 Angs**3

  Final internal derivatives :

   No.  Atomic          a             b             c           Radius
        Label          (eV)          (eV)          (eV)        (eV/Angs)
      1 Cl    c       0.000000      0.000000      0.000000      0.000000
      2 O     c       0.000000      0.000000      0.000000      0.000000
      3 Na    c       0.000000      0.000000      0.000000      0.000000
      4 Cl    s       0.000000      0.000000      0.000000      0.000000
      5 O     s       0.000000      0.000000      0.000000      0.000000
  Maximum abs         0.000000      0.000000      0.000000      0.000000

  Comparison of initial and final structures :

  Parameter   Initial value   Final value   Difference    Units      Percent
    Volume        91.368216     91.598892     0.230676    Angs**3      0.25
    a              4.504000      4.507787     0.003787    Angstroms    0.08
    b              4.504000      4.507787     0.003787    Angstroms    0.08
    c              4.504000      4.507787     0.003787    Angstroms    0.08
    alpha         90.000000     90.000000     0.000000    Degrees      0.00
    beta          90.000000     90.000000     0.000000    Degrees      0.00
    gamma         90.000000     90.000000     0.000000    Degrees      0.00
      1 x          0.000000      0.000000     0.000000    Fractional   0.00
      1 y          0.000000      0.000000     0.000000    Fractional   0.00
      1 z          0.000000      0.000000     0.000000    Fractional   0.00
      2 x          0.500000      0.500000     0.000000    Fractional   0.00
      2 y          0.500000      0.500000     0.000000    Fractional   0.00
      2 z          0.500000      0.500000     0.000000    Fractional   0.00
      3 x          0.500000      0.500000     0.000000    Fractional   0.00
      3 y          0.500000      0.500000     0.000000    Fractional   0.00
      3 z          0.000000      0.000000     0.000000    Fractional   0.00
      4 x          0.000000      0.000000     0.000000    Fractional   0.00
      4 y          0.000000      0.000000     0.000000    Fractional   0.00
      4 z          0.000000      0.000000     0.000000    Fractional   0.00
      5 x          0.500000      0.500000     0.000000    Fractional   0.00
      5 y          0.500000      0.500000     0.000000    Fractional   0.00
      5 z          0.500000      0.500000     0.000000    Fractional   0.00

  Born effective charge tensors :

  Atom             x           y             z
    1 Cl    x      -1.0181     -0.0000      0.0000
            y      -0.0000     -1.0181      0.0000
            z       0.0000      0.0000     -1.0181
    2 O     x      -2.2647      0.0000     -0.0000
            y       0.0000     -2.2647     -0.0000
            z      -0.0000     -0.0000     -2.2647
    3 Na    x       1.2258     -0.0000      0.0000
            y      -0.0000      1.2258     -0.0000
            z       0.0000     -0.0000      0.8313

  Elastic Constant Matrix: (Units=GPa)

  Indices      1         2         3         4         5         6
       1     95.8177   20.0737   20.0737   -0.0000   -0.0000    0.0000
       2     20.0737   95.8177   20.0737   -0.0000   -0.0000    0.0000
       3     20.0737   20.0737   95.8177   -0.0000   -0.0000    0.0000
       4     -0.0000   -0.0000   -0.0000   20.0737   -0.0000    0.0000
       5     -0.0000   -0.0000   -0.0000   -0.0000   20.0737    0.0000
       6      0.0000    0.0000    0.0000    0.0000    0.0000   20.0737

  Elastic Compliance Matrix: (Units=1/GPa)

[...]
    246 z          4.507787      4.624924     0.117137    Cartesian    2.60
    247 x          9.015574      9.066118     0.050543    Cartesian    0.56
    247 y          0.000000     -0.006817    -0.006817    Cartesian    0.00
    247 z          0.000000     -0.005611    -0.005611    Cartesian    0.00
    248 x         -2.253894     -2.253860     0.000034    Cartesian   -0.00
    248 y          2.253894      2.260574     0.006680    Cartesian    0.30
    248 z          6.761681      6.771608     0.009927    Cartesian    0.15
    249 x          6.761681      6.747655    -0.014025    Cartesian   -0.21
    249 y          6.761681      6.728227    -0.033454    Cartesian   -0.49
    249 z          2.253894      2.257345     0.003452    Cartesian    0.15
    250 x          9.015574      9.027775     0.012200    Cartesian    0.14
    250 y          0.000000     -0.001690    -0.001690    Cartesian    0.00
    250 z          4.507787      4.522031     0.014244    Cartesian    0.32
    251 x          9.015574      9.056759     0.041185    Cartesian    0.46
    251 y          4.507787      4.544710     0.036923    Cartesian    0.82
    251 z          0.000000     -0.052282    -0.052282    Cartesian    0.00
    252 x          2.253894      2.253894     0.000000    Cartesian    0.00
    252 y          6.761681      6.762461     0.000780    Cartesian    0.01
    252 z          6.761681      6.732138    -0.029543    Cartesian   -0.44
    253 x         -2.253894     -2.256089    -0.002195    Cartesian    0.10
    253 y         -2.253894     -2.258699    -0.004805    Cartesian    0.21
    253 z          6.761681      6.769570     0.007889    Cartesian    0.12
    254 x          2.253894      2.253894     0.000000    Cartesian    0.00
    254 y          2.253894      2.260542     0.006648    Cartesian    0.29
    254 z         -6.761681     -6.725160     0.036521    Cartesian   -0.54
    255 x          2.253894      2.253894     0.000000    Cartesian    0.00
    255 y         -6.761681     -6.798488    -0.036807    Cartesian    0.54
    255 z          2.253894      2.233578    -0.020315    Cartesian   -0.90
    256 x          6.761681      6.773074     0.011393    Cartesian    0.17
    256 y          6.761681      6.767240     0.005559    Cartesian    0.08
    256 z         -2.253894     -2.261672    -0.007778    Cartesian    0.35
    257 x          4.507787      4.527628     0.019840    Cartesian    0.44
    257 y         -4.507787     -4.501608     0.006179    Cartesian   -0.14
    257 z         -4.507787     -4.567271    -0.059483    Cartesian    1.32
    258 x          4.507787      4.501833    -0.005954    Cartesian   -0.13
    258 y          0.000000      0.028559     0.028559    Cartesian    0.00
    258 z          9.015574      9.045138     0.029563    Cartesian    0.33
    259 x          4.507787      4.550113     0.042326    Cartesian    0.94
    259 y          9.015574      9.049955     0.034381    Cartesian    0.38
    259 z          0.000000      0.014403     0.014403    Cartesian    0.00
    260 x          9.015574      9.064928     0.049354    Cartesian    0.55
    260 y          4.507787      4.521217     0.013429    Cartesian    0.30
    260 z          4.507787      4.514662     0.006875    Cartesian    0.15
    261 x          2.253894      2.253894     0.000000    Cartesian    0.00
    261 y         -2.253894     -2.248950     0.004944    Cartesian   -0.22
    261 z         -6.761681     -6.720585     0.041096    Cartesian   -0.61
    262 x          2.253894      2.253894     0.000000    Cartesian    0.00
    262 y         -6.761681     -6.724487     0.037194    Cartesian   -0.55
    262 z         -2.253894     -2.241051     0.012843    Cartesian   -0.57
    263 x          4.507787      4.511894     0.004106    Cartesian    0.09
    263 y          4.507787      4.512364     0.004577    Cartesian    0.10
    263 z          9.015574      9.061362     0.045788    Cartesian    0.51
    264 x          9.015574      9.025215     0.009640    Cartesian    0.11
    264 y          0.000000      0.015493     0.015493    Cartesian    0.00
    264 z         -4.507787     -4.517674    -0.009887    Cartesian    0.22
    265 x          4.507787      4.501050    -0.006737    Cartesian   -0.15
    265 y          9.015574      9.057313     0.041739    Cartesian    0.46
    265 z          4.507787      4.502568    -0.005220    Cartesian   -0.12
    266 x          9.015574      9.071166     0.055591    Cartesian    0.62
    266 y         -4.507787     -4.521862    -0.014074    Cartesian    0.31
    266 z          0.000000     -0.034227    -0.034227    Cartesian    0.00
    267 x          6.761681      6.775170     0.013489    Cartesian    0.20
    267 y          6.761681      6.766491     0.004811    Cartesian    0.07
    267 z          6.761681      6.760034    -0.001647    Cartesian   -0.02
    268 x          6.761681      6.740363    -0.021318    Cartesian   -0.32
    268 y         -6.761681     -6.735943     0.025738    Cartesian   -0.38
    268 z          2.253894      2.258047     0.004153    Cartesian    0.18
    269 x         11.269468     11.230661    -0.038807    Cartesian   -0.34
    269 y          2.253894      2.255732     0.001839    Cartesian    0.08
    269 z          2.253894      2.256311     0.002417    Cartesian    0.11
    270 x         -2.253894     -2.257984    -0.004090    Cartesian    0.18
    270 y          2.253894      2.251207    -0.002687    Cartesian   -0.12
    270 z         -6.761681     -6.750944     0.010737    Cartesian   -0.16
    271 x          9.015574      9.026197     0.010623    Cartesian    0.12
    271 y          4.507787      4.525893     0.018105    Cartesian    0.40
    271 z         -4.507787     -4.560713    -0.052926    Cartesian    1.17
    272 x          9.015574      9.069125     0.053550    Cartesian    0.59
    272 y         -4.507787     -4.503334     0.004453    Cartesian   -0.10
    272 z          4.507787      4.528871     0.021084    Cartesian    0.47
    273 x          2.253894      2.253894     0.000000    Cartesian    0.00
    273 y          6.761681      6.733904    -0.027777    Cartesian   -0.41
    273 z         -6.761681     -6.753940     0.007741    Cartesian   -0.11
    274 x          2.253894      2.253894     0.000000    Cartesian    0.00
    274 y         -6.761681     -6.736392     0.025288    Cartesian   -0.37
    274 z          6.761681      6.747223    -0.014458    Cartesian   -0.21
    275 x         11.269468     11.230101    -0.039367    Cartesian   -0.35
    275 y         -2.253894     -2.259241    -0.005347    Cartesian    0.24
    275 z          2.253894      2.256025     0.002131    Cartesian    0.09
    276 x         -2.253894     -2.253845     0.000048    Cartesian   -0.00
    276 y         -2.253894     -2.250388     0.003506    Cartesian   -0.16
    276 z         -6.761681     -6.753005     0.008676    Cartesian   -0.13
    277 x          6.761681      6.776571     0.014890    Cartesian    0.22
    277 y         -6.761681     -6.756933     0.004747    Cartesian   -0.07
    277 z         -2.253894     -2.260335    -0.006442    Cartesian    0.29
    278 x         11.269468     11.267195    -0.002273    Cartesian   -0.02
    278 y          2.253894      2.252141    -0.001752    Cartesian   -0.08
    278 z         -2.253894     -2.245646     0.008248    Cartesian   -0.37
    279 x          4.507787      4.496083    -0.011704    Cartesian   -0.26
    279 y          9.015574      9.065591     0.050017    Cartesian    0.55
    279 z         -4.507787     -4.532629    -0.024842    Cartesian    0.55
    280 x          4.507787      4.524417     0.016630    Cartesian    0.37
    280 y         -4.507787     -4.491869     0.015918    Cartesian   -0.35
    280 z          9.015574      9.074271     0.058697    Cartesian    0.65
    281 x          2.253894      2.253894     0.000000    Cartesian    0.00
    281 y         11.269468     11.265942    -0.003526    Cartesian   -0.03
    281 z          2.253894      2.271838     0.017944    Cartesian    0.80
    282 x          2.253894      2.253894     0.000000    Cartesian    0.00
    282 y          2.253894      2.250545    -0.003348    Cartesian   -0.15
    282 z         11.269468     11.265267    -0.004201    Cartesian   -0.04
    283 x         11.269468     11.271646     0.002178    Cartesian    0.02
    283 y         -2.253894     -2.232635     0.021259    Cartesian   -0.94
    283 z         -2.253894     -2.251584     0.002310    Cartesian   -0.10
    284 x          9.015574      9.026635     0.011060    Cartesian    0.12
    284 y         -4.507787     -4.508963    -0.001176    Cartesian    0.03
    284 z         -4.507787     -4.561385    -0.053598    Cartesian    1.19
    285 x          4.507787      4.495714    -0.012073    Cartesian   -0.27
    285 y          0.000000     -0.000038    -0.000038    Cartesian    0.00
    285 z         -9.015574     -9.119790    -0.104216    Cartesian    1.16
    286 x          4.507787      4.517880     0.010093    Cartesian    0.22
    286 y         -9.015574     -9.021779    -0.006205    Cartesian    0.07
    286 z          0.000000      0.021610     0.021610    Cartesian    0.00
    287 x          9.015574      9.065352     0.049778    Cartesian    0.55
    287 y          0.000000      0.006675     0.006675    Cartesian    0.00
    287 z          9.015574      9.016988     0.001413    Cartesian    0.02
    288 x          9.015574      9.022259     0.006684    Cartesian    0.07
    288 y          9.015574      9.057591     0.042016    Cartesian    0.47
    288 z          0.000000     -0.025106    -0.025106    Cartesian    0.00
    289 x          6.761681      6.759452    -0.002229    Cartesian   -0.03
    289 y          6.761681      6.762781     0.001100    Cartesian    0.02
    289 z         -6.761681     -6.763452    -0.001772    Cartesian    0.03
    290 x          6.761681      6.772102     0.010421    Cartesian    0.15
    290 y         -6.761681     -6.769990    -0.008310    Cartesian    0.12
    290 z          6.761681      6.765393     0.003712    Cartesian    0.05
    291 x         11.269468     11.264616    -0.004852    Cartesian   -0.04
    291 y          2.253894      2.251360    -0.002534    Cartesian   -0.11
    291 z          6.761681      6.763110     0.001429    Cartesian    0.02
    292 x         11.269468     11.270581     0.001113    Cartesian    0.01
    292 y          6.761681      6.743694    -0.017987    Cartesian   -0.27
    292 z          2.253894      2.251680    -0.002214    Cartesian   -0.10
    293 x          2.253894      2.253894     0.000000    Cartesian    0.00
    293 y         11.269468     11.251730    -0.017738    Cartesian   -0.16
    293 z         -2.253894     -2.270313    -0.016420    Cartesian    0.73
    294 x          2.253894      2.253894     0.000000    Cartesian    0.00
    294 y         -2.253894     -2.260015    -0.006121    Cartesian    0.27
    294 z         11.269468     11.255730    -0.013738    Cartesian   -0.12
    295 x          4.507787      4.533516     0.025729    Cartesian    0.57
    295 y          4.507787      4.526356     0.018569    Cartesian    0.41
    295 z         -9.015574     -9.022933    -0.007358    Cartesian    0.08
    296 x          4.507787      4.484583    -0.023204    Cartesian   -0.51
    296 y         -9.015574     -9.056293    -0.040719    Cartesian    0.45
    296 z          4.507787      4.481959    -0.025828    Cartesian   -0.57
    297 x          9.015574      9.020544     0.004970    Cartesian    0.06
    297 y          9.015574      9.046094     0.030520    Cartesian    0.34
    297 z          4.507787      4.520231     0.012444    Cartesian    0.28
    298 x          9.015574      9.041093     0.025518    Cartesian    0.28
    298 y          4.507787      4.520721     0.012934    Cartesian    0.29
    298 z          9.015574      9.037322     0.021747    Cartesian    0.24
    299 x         11.269468     11.270133     0.000665    Cartesian    0.01
    299 y         -2.253894     -2.252027     0.001866    Cartesian   -0.08
    299 z          6.761681      6.765221     0.003540    Cartesian    0.05
    300 x         -2.253894     -2.267016    -0.013123    Cartesian    0.58
    300 y         11.269468     11.258534    -0.010934    Cartesian   -0.10
    300 z          2.253894      2.244968    -0.008926    Cartesian   -0.40
    301 x          2.253894      2.253894     0.000000    Cartesian    0.00
    301 y         -6.761681     -6.742994     0.018686    Cartesian   -0.28
    301 z         -6.761681     -6.760274     0.001407    Cartesian   -0.02
    302 x          6.761681      6.760689    -0.000992    Cartesian   -0.01
    302 y          2.253894      2.262592     0.008698    Cartesian    0.39
    302 z         11.269468     11.271609     0.002141    Cartesian    0.02
    303 x         11.269468     11.266298    -0.003170    Cartesian   -0.03
    303 y          6.761681      6.771483     0.009803    Cartesian    0.14
    303 z         -2.253894     -2.254457    -0.000563    Cartesian    0.02
    304 x         13.523362     13.559692     0.036331    Cartesian    0.27
    304 y          0.000000     -0.006582    -0.006582    Cartesian    0.00
    304 z          0.000000      0.008077     0.008077    Cartesian    0.00
    305 x          4.507787      4.524331     0.016544    Cartesian    0.37
    305 y          9.015574      9.039554     0.023980    Cartesian    0.27
    305 z          9.015574      9.042971     0.027396    Cartesian    0.30
    306 x          2.253894      2.253894     0.000000    Cartesian    0.00
    306 y          6.761681      6.772359     0.010679    Cartesian    0.16
    306 z         11.269468     11.259170    -0.010298    Cartesian   -0.09
    307 x          2.253894      2.253894     0.000000    Cartesian    0.00
    307 y         11.269468     11.275395     0.005927    Cartesian    0.05
    307 z          6.761681      6.752786    -0.008895    Cartesian   -0.13
    308 x         -2.253894     -2.251028     0.002866    Cartesian   -0.13
    308 y         11.269468     11.275504     0.006036    Cartesian    0.05
    308 z         -2.253894     -2.257597    -0.003704    Cartesian    0.16
    309 x          6.761681      6.763847     0.002166    Cartesian    0.03
    309 y         -2.253894     -2.256714    -0.002820    Cartesian    0.13
    309 z         11.269468     11.267094    -0.002374    Cartesian   -0.02
    310 x         13.523362     13.620379     0.097017    Cartesian    0.72
    310 y          0.000000      0.001232     0.001232    Cartesian    0.00
    310 z          4.507787      4.485986    -0.021801    Cartesian   -0.48
    311 x         13.523362     13.542007     0.018646    Cartesian    0.14
    311 y          4.507787      4.542469     0.034681    Cartesian    0.77
    311 z          0.000000      0.012577     0.012577    Cartesian    0.00
    312 x          4.507787      4.505668    -0.002120    Cartesian   -0.05
    312 y         -4.507787     -4.539335    -0.031548    Cartesian    0.70
    312 z         -9.015574     -9.028548    -0.012973    Cartesian    0.14
    313 x          4.507787      4.509555     0.001768    Cartesian    0.04
    313 y         -9.015574     -9.081786    -0.066212    Cartesian    0.73
    313 z         -4.507787     -4.512352    -0.004565    Cartesian    0.10
    314 x          9.015574      9.050662     0.035087    Cartesian    0.39
    314 y          9.015574      9.033475     0.017900    Cartesian    0.20
    314 z         -4.507787     -4.520334    -0.012547    Cartesian    0.28
    315 x          9.015574      9.047818     0.032244    Cartesian    0.36
    315 y         -4.507787     -4.508657    -0.000870    Cartesian    0.02
    315 z          9.015574      9.051517     0.035943    Cartesian    0.40

  Time to end of optimisation  =      110.1392 seconds

  Timing analysis for GULP :

  Task / Subroutine                                          Time (Seconds)
  Calculation of reciprocal space energy and derivatives          0.0008
  Calculation of reciprocal space energy using symmetry           0.0010
  Calculation of real space energy and derivatives                0.0039
  Calculation of real space energy using symmetry                 0.0096
  Calculation for region 1 energy and derivatives (2-b)          64.7666
  Calculation for region 2a energy                               39.6680
  Calculation for region 2b energy                                0.0212
  Calculation and manipulation of Hessian matrix                  0.2007
  Calculation of matrix inversion                                 4.9897
  Symmetry generation of equivalent positions                     0.0050

  Dump file written as Na3OCl.grs

  Job Finished at 18:44.48 26th November   2020